PMID,Journal,doi,doi_url,publisher_guess,year
11675715,Medicamentum,,,,1980
38737786,Soc Sci Q,10.1111/ssqu.13318,https://onlinelibrary.wiley.com/doi/10.1111/ssqu.13318,Wiley,2023
38737786,Soc Sci Q,10.1111/ssqu.13318,https://onlinelibrary.wiley.com/doi/10.1111/ssqu.13318,Wiley,2023
25076799,Soc Sci Q,10.1111/ssqu.12039,https://onlinelibrary.wiley.com/doi/10.1111/ssqu.12039,Wiley,2014
11616882,Demogr India,,,,1982
11616882,Demogr India,,,,1982
11616882,Demogr India,,,,1982
11618200,Technologia,,,,1986
11618200,Technologia,,,,1986
11633364,Technologia,,,,1982
11635953,Sigmund Freud House Bull,,,,1985
11635953,Sigmund Freud House Bull,,,,1985
11635953,Sigmund Freud House Bull,,,,1985
38620147,Int J Educ Dev,10.1016/j.ijedudev.2023.102841,https://linkinghub.elsevier.com/retrieve/pii/S0738059323001177,ScienceDirect,2023
38620147,Int J Educ Dev,10.1016/j.ijedudev.2023.102841,https://linkinghub.elsevier.com/retrieve/pii/S0738059323001177,ScienceDirect,2023
34518731,Int J Educ Dev,10.1016/j.ijedudev.2021.102429,https://linkinghub.elsevier.com/retrieve/pii/S0738059321000821,ScienceDirect,2021
18649437,Shigaku Zasshi,,,,2001
18649437,Shigaku Zasshi,,,,2001
18649437,Shigaku Zasshi,,,,2001
11837290,Bull Hunt Inst Bot Doc,,,,2001
11837290,Bull Hunt Inst Bot Doc,,,,2001
11639946,Bull Hunt Inst Bot Doc,,,,1994
17099989,Int Soc Sci Rev,,,,2000
17099989,Int Soc Sci Rev,,,,2000
11617220,Int Soc Sci Rev,,,,1985
11612592,Environ Rev,,,,1989
11612592,Environ Rev,,,,1989
11612082,Environ Rev,,,,1984
38911676,Q J Econ,10.1093/qje/qjad048,https://academic.oup.com/crawlprevention/governor?content=%2fqje%2farticle%2f139%2f2%2f829%2f7289247,Oxford University Press,2024
38911676,Q J Econ,10.1093/qje/qjad048,https://academic.oup.com/crawlprevention/governor?content=%2fqje%2farticle%2f139%2f2%2f829%2f7289247,Oxford University Press,2024
32981974,Q J Econ,10.1093/qje/qjy020,https://academic.oup.com/crawlprevention/governor?content=%2fqje%2farticle%2f134%2f1%2f51%2f5090426,Oxford University Press,2019
38603196,Armed Forces Soc,10.1177/0095327X211070035,https://journals.sagepub.com/doi/10.1177/0095327X211070035,SAGE Publications,2023
38603196,Armed Forces Soc,10.1177/0095327X211070035,https://journals.sagepub.com/doi/10.1177/0095327X211070035,SAGE Publications,2023
38603196,Armed Forces Soc,10.1177/0095327X211070035,https://journals.sagepub.com/doi/10.1177/0095327X211070035,SAGE Publications,2023
11616933,Emory Mag,,,,1977
11616933,Emory Mag,,,,1977
11616933,Emory Mag,,,,1977
37701370,J Polit Econ,10.1086/722936,https://www.journals.uchicago.edu/doi/10.1086/722936,Unknown,2023
37701370,J Polit Econ,10.1086/722936,https://www.journals.uchicago.edu/doi/10.1086/722936,Unknown,2023
11617448,J Polit Econ,10.1086/261594,https://www.journals.uchicago.edu/doi/10.1086/261594,Unknown,1989
11678100,Foreign Policy,,,,1985
11678100,Foreign Policy,,,,1985
11678100,Foreign Policy,,,,1985
36718282,Dev Change,10.1111/dech.12737,https://onlinelibrary.wiley.com/doi/10.1111/dech.12737,Wiley,2022
36718282,Dev Change,10.1111/dech.12737,https://onlinelibrary.wiley.com/doi/10.1111/dech.12737,Wiley,2022
22164882,Dev Change,10.1111/j.1467-7660.2011.01716.x,https://onlinelibrary.wiley.com/doi/10.1111/j.1467-7660.2011.01716.x,Wiley,2011
11616646,Asian Surv,,,,1985
11616646,Asian Surv,,,,1985
11616646,Asian Surv,,,,1985
38603342,Adm Soc,10.1177/00953997221140899,https://journals.sagepub.com/doi/10.1177/00953997221140899,SAGE Publications,2023
38603342,Adm Soc,10.1177/00953997221140899,https://journals.sagepub.com/doi/10.1177/00953997221140899,SAGE Publications,2023
11614137,Adm Soc,,,,1983
18389563,Asian Profile,,,,2000
18389563,Asian Profile,,,,2000
17876946,Asian Profile,,,,2001
18050548,Bull Bibliogr,,,,2000
18050548,Bull Bibliogr,,,,2000
18050535,Bull Bibliogr,,,,2000
11656049,Wash Mon,,,,1989
11656049,Wash Mon,,,,1989
11633544,Wash Mon,,,,1971
19035022,Smithsonian,,,,2001
19035022,Smithsonian,,,,2001
11635966,Smithsonian,,,,1984
11632586,Nat Mus,,,,1980
11632586,Nat Mus,,,,1980
11635446,Nat Mus,,,,1978
11631841,Curr Hist,,,,1980
11631841,Curr Hist,,,,1980
11631838,Curr Hist,,,,1977
18942222,Huntingt Libr Q,,,,2001
18942222,Huntingt Libr Q,,,,2001
11635171,Huntingt Libr Q,,,,1974
11635970,Soc Econ Stud,,,,1981
11635970,Soc Econ Stud,,,,1981
11633184,Soc Econ Stud,,,,1977
11616795,Cap Chem,,,,1975
11616795,Cap Chem,,,,1975
11616795,Cap Chem,,,,1975
26166834,Biologist,,,,2014
26166834,Biologist,,,,2014
11740077,Biologist,,,,2001
11633046,Rev Univ Nac Cordoba,,,,1969
11633046,Rev Univ Nac Cordoba,,,,1969
11633046,Rev Univ Nac Cordoba,,,,1969
17876953,Prologue J Natl Arch,,,,2000
17876953,Prologue J Natl Arch,,,,2000
17607879,Prologue J Natl Arch,,,,2000
11635564,Proc Camb Philos Soc,,,,1972
11635564,Proc Camb Philos Soc,,,,1972
11635564,Proc Camb Philos Soc,,,,1972
38106817,J Polit,10.1086/715600,https://www.journals.uchicago.edu/doi/10.1086/715600,Unknown,2022
38106817,J Polit,10.1086/715600,https://www.journals.uchicago.edu/doi/10.1086/715600,Unknown,2022
11617444,J Polit,,,,1986
11635251,J Otto Rank Assoc,,,,1979
11635251,J Otto Rank Assoc,,,,1979
11635251,J Otto Rank Assoc,,,,1979
11634598,Ariel (Jerus),,,,1976
11634598,Ariel (Jerus),,,,1976
11634598,Ariel (Jerus),,,,1976
26985080,Ann Assoc Am Geogr,10.1080/00045608.2015.1060924,https://www.tandfonline.com/doi/full/10.1080/00045608.2015.1060924,Taylor & Francis,2015
26985080,Ann Assoc Am Geogr,10.1080/00045608.2015.1060924,https://www.tandfonline.com/doi/full/10.1080/00045608.2015.1060924,Taylor & Francis,2015
26339073,Ann Assoc Am Geogr,10.1080/00045608.2015.1018777,https://www.tandfonline.com/doi/full/10.1080/00045608.2015.1018777,Taylor & Francis,2015
11615144,Ser Libr,10.1300/J123v11n01_04,https://www.tandfonline.com/doi/abs/10.1300/J123v11n01_04,Taylor & Francis,1986
11615144,Ser Libr,10.1300/J123v11n01_04,https://www.tandfonline.com/doi/abs/10.1300/J123v11n01_04,Taylor & Francis,1986
11633154,Ser Libr,,,,1982
11611976,Picturescope,,,,1986
11611976,Picturescope,,,,1986
11611976,Picturescope,,,,1986
11614275,Br Book News,,,,1980
11614275,Br Book News,,,,1980
11614275,Br Book News,,,,1980
11639418,Proc U S Nav Inst,,,,1994
11639418,Proc U S Nav Inst,,,,1994
11639418,Proc U S Nav Inst,,,,1994
11632843,Rend Accad Naz XL,,,,1965
11632843,Rend Accad Naz XL,,,,1965
11632843,Rend Accad Naz XL,,,,1965
37324651,Signs (Chic),10.1086/723296,https://www.journals.uchicago.edu/doi/10.1086/723296,Unknown,2023
37324651,Signs (Chic),10.1086/723296,https://www.journals.uchicago.edu/doi/10.1086/723296,Unknown,2023
21114082,Signs (Chic),10.1086/656023,https://www.journals.uchicago.edu/doi/10.1086/656023,Unknown,2011
21113327,Collections,10.1214/10-IMSCOLL607,https://projecteuclid.org/ebooks/institute-of-mathematical-statistics-collections/Borrowing-Strength--Theory-Powering-Applications--A-Festschrift-for/chapter/High-dimensional-Bernstein-von-Mises-simple-examples/10.1214/10-IMSCOLL607,Unknown,2010
21113327,Collections,10.1214/10-IMSCOLL607,https://projecteuclid.org/ebooks/institute-of-mathematical-statistics-collections/Borrowing-Strength--Theory-Powering-Applications--A-Festschrift-for/chapter/High-dimensional-Bernstein-von-Mises-simple-examples/10.1214/10-IMSCOLL607,Unknown,2010
11616846,Collections,,,,1991
11635382,Mentalities,,,,1985
11635382,Mentalities,,,,1985
11635382,Mentalities,,,,1985
11636878,Vet Historisch Genoot Cah,,,,1997
11636878,Vet Historisch Genoot Cah,,,,1997
11619464,Vet Historisch Genoot Cah,,,,1997
25029758,Argos,,,,2014
25029758,Argos,,,,2014
12056419,Argos,,,,2000
11636602,Pharmaziehist Forsch,,,,1996
11636602,Pharmaziehist Forsch,,,,1996
11636602,Pharmaziehist Forsch,,,,1996
11619591,Chronicle (Phila),,,,1997
11619591,Chronicle (Phila),,,,1997
11619591,Chronicle (Phila),,,,1997
29781591,Early Sci Med,10.1163/15733823-00221p05,https://brill.com/view/journals/esm/22/1/article-p103_5.xml,Unknown,2017
29781591,Early Sci Med,10.1163/15733823-00221p05,https://brill.com/view/journals/esm/22/1/article-p103_5.xml,Unknown,2017
26856050,Early Sci Med,10.1163/15733823-02046p10,https://brill.com/view/journals/esm/20/4-6/article-p536_10.xml,Unknown,2015
31404319,Hist Workshop J,10.1093/hwj/dbz001,https://academic.oup.com/crawlprevention/governor?content=%2fhwj%2farticle%2fdoi%2f10.1093%2fhwj%2fdbz001%2f5365499,Oxford University Press,2019
31404319,Hist Workshop J,10.1093/hwj/dbz001,https://academic.oup.com/crawlprevention/governor?content=%2fhwj%2farticle%2fdoi%2f10.1093%2fhwj%2fdbz001%2f5365499,Oxford University Press,2019
22206119,Hist Workshop J,10.1093/hwj/dbr021,https://academic.oup.com/crawlprevention/governor?content=%2fhwj%2farticle-lookup%2fdoi%2f10.1093%2fhwj%2fdbr021,Oxford University Press,2011
30248254,Windows Time,,,,2018
30248254,Windows Time,,,,2018
15630799,Windows Time,,,,2004
11618984,Newsl Soc Anc Med,,,,1992
11618984,Newsl Soc Anc Med,,,,1992
11618580,Newsl Soc Anc Med,,,,1991
11619717,Soc Anc Med Rev,,,,1996
11619717,Soc Anc Med Rev,,,,1996
11619717,Soc Anc Med Rev,,,,1996
11632576,MIMS Mag,,,,1981
11632576,MIMS Mag,,,,1981
11632574,MIMS Mag,,,,1981
38768994,Uisahak,10.13081/kjmh.2024.33.191,https://www.medhist.or.kr/journal/view.php?doi=10.13081/kjmh.2024.33.191,Unknown,2024
38768994,Uisahak,10.13081/kjmh.2024.33.191,https://www.medhist.or.kr/journal/view.php?doi=10.13081/kjmh.2024.33.191,Unknown,2024
33503642,Uisahak,10.13081/kjmh.2020.29.735,https://www.medhist.or.kr/journal/view.php?doi=10.13081/kjmh.2020.29.735,Unknown,2020
29297218,Vesalius,,,,2016
29297218,Vesalius,,,,2016
29297216,Vesalius,,,,2016
38896752,Hist Cienc Saude Manguinhos,10.1590/S0104-59702024000100029,https://www.scielo.br/j/hcsm/a/KbnLY7m85SNDSbtSmWJ58Qk/?lang=pt,Unknown,2024
38896752,Hist Cienc Saude Manguinhos,10.1590/S0104-59702024000100029,https://www.scielo.br/j/hcsm/a/KbnLY7m85SNDSbtSmWJ58Qk/?lang=pt,Unknown,2024
36542031,Hist Cienc Saude Manguinhos,10.1590/S0104-59702022000400004,https://www.scielo.br/j/hcsm/a/ghHrynS73YbcJbCBnTV3fqF/?lang=pt,Unknown,2022
11618571,Mcgill Queens Hannah Inst Stud Hist Med Health Soc,,,,1994
11618571,Mcgill Queens Hannah Inst Stud Hist Med Health Soc,,,,1994
11618571,Mcgill Queens Hannah Inst Stud Hist Med Health Soc,,,,1994
11636622,Wiss Beitr Gesch Seelenheilkd,,,,1997
11636622,Wiss Beitr Gesch Seelenheilkd,,,,1997
11636616,Wiss Beitr Gesch Seelenheilkd,,,,1997
11636465,Monogr Quad Int Stor Med Sanita,,,,1992
11636465,Monogr Quad Int Stor Med Sanita,,,,1992
11636465,Monogr Quad Int Stor Med Sanita,,,,1992
11619253,Bull Soc Liban Hist Med,,,,1994
11619253,Bull Soc Liban Hist Med,,,,1994
11619243,Bull Soc Liban Hist Med,,,,1994
19244737,Med Nowozytna,,,,2007
19244737,Med Nowozytna,,,,2007
17152880,Med Nowozytna,,,,2004
11618335,Raspr Grada Povij Znan,,,,1990
11618335,Raspr Grada Povij Znan,,,,1990
11618335,Raspr Grada Povij Znan,,,,1990
11636392,Acta Salmant Hist Med,,,,1991
11636392,Acta Salmant Hist Med,,,,1991
11636392,Acta Salmant Hist Med,,,,1991
11640813,Z Med Psychol,,,,1993
11640813,Z Med Psychol,,,,1993
11640813,Z Med Psychol,,,,1993
11636463,Sozialgesch Med,,,,1992
11636463,Sozialgesch Med,,,,1992
11636463,Sozialgesch Med,,,,1992
21980215,Physis,10.1590/S0103-73312010000100011,https://www.scielo.br/j/physis/a/8cPRvVD7XtJKLYfT6qHHH6f/?lang=pt,Unknown,2010
21980215,Physis,10.1590/S0103-73312010000100011,https://www.scielo.br/j/physis/a/8cPRvVD7XtJKLYfT6qHHH6f/?lang=pt,Unknown,2010
21980215,Physis,10.1590/S0103-73312010000100011,https://www.scielo.br/j/physis/a/8cPRvVD7XtJKLYfT6qHHH6f/?lang=pt,Unknown,2010
11636571,Estud Hist Saude,,,,1993
11636571,Estud Hist Saude,,,,1993
11636565,Estud Hist Saude,,,,1992
11636486,Colecc Hist Cienc Salud,,,,1991
11636486,Colecc Hist Cienc Salud,,,,1991
11636486,Colecc Hist Cienc Salud,,,,1991
27290809,Hindsight,,,,2016
27290809,Hindsight,,,,2016
17575626,Hindsight,,,,2007
11625030,Cuad Complut Hist Med Cienc,,,,1993
11625030,Cuad Complut Hist Med Cienc,,,,1993
11625017,Cuad Complut Hist Med Cienc,,,,1993
11631574,Arch Hist Med Port,,,,1968
11631574,Arch Hist Med Port,,,,1968
11631574,Arch Hist Med Port,,,,1968
11614104,USAF Med Serv Dig,,,,1993
11614104,USAF Med Serv Dig,,,,1993
11614104,USAF Med Serv Dig,,,,1993
38260916,J Hist Sex,10.7560/JHS33103,https://www.utexaspressjournals.org/doi/10.7560/JHS33103,Unknown,2024
38260916,J Hist Sex,10.7560/JHS33103,https://www.utexaspressjournals.org/doi/10.7560/JHS33103,Unknown,2024
21748902,J Hist Sex,10.1353/sex.2011.0024,https://muse.jhu.edu/article/431920,Unknown,2011
11618995,Hist Workshop,10.1093/hwj/1997.43.218,https://academic.oup.com/crawlprevention/governor?content=%2fhwj%2farticle%2f43%2f1%2f218%2f835237,Oxford University Press,1997
11618995,Hist Workshop,10.1093/hwj/1997.43.218,https://academic.oup.com/crawlprevention/governor?content=%2fhwj%2farticle%2f43%2f1%2f218%2f835237,Oxford University Press,1997
11611281,Hist Workshop,10.1093/hwj/13.1.110,https://academic.oup.com/crawlprevention/governor?content=%2fhwj%2farticle%2f13%2f1%2f110%2f658993,Oxford University Press,1982
11620136,Can Soc Trends,,,,1989
11620136,Can Soc Trends,,,,1989
11616786,Can Soc Trends,,,,1988
11638974,Medicam Hist Soc,,,,1999
11638974,Medicam Hist Soc,,,,1999
11636389,Medicam Hist Soc,,,,1995
11640447,Rev Int Hist Psychanal,,,,1993
11640447,Rev Int Hist Psychanal,,,,1993
11640426,Rev Int Hist Psychanal,,,,1993
11639501,Hist Nurs Soc J,,,,1992
11639501,Hist Nurs Soc J,,,,1992
11616131,Hist Nurs Soc J,,,,1990
11630923,Mater Med Greca,,,,1981
11630923,Mater Med Greca,,,,1981
11630921,Mater Med Greca,,,,1981
11640620,Boll Osp Varese,,,,1993
11640620,Boll Osp Varese,,,,1993
11640619,Boll Osp Varese,,,,1993
18447318,Gewina,,,,2007
18447318,Gewina,,,,2007
11640345,Gewina,,,,1993
11636473,Bibl Stor Sci,,,,1986
11636473,Bibl Stor Sci,,,,1986
11636473,Bibl Stor Sci,,,,1986
29537778,Lege Artis Med,,,,2016
29537778,Lege Artis Med,,,,2016
21469309,Lege Artis Med,,,,2010
11630256,Butll Soc Amics Hist Cienc Farm Catalana,,,,1996
11630256,Butll Soc Amics Hist Cienc Farm Catalana,,,,1996
11625867,Butll Soc Amics Hist Cienc Farm Catalana,,,,1995
22332472,Kos,,,,2011
22332472,Kos,,,,2011
11636969,Kos,,,,1998
15487086,Tip Tarihi Arastirmalari,,,,2004
15487086,Tip Tarihi Arastirmalari,,,,2004
14598834,Tip Tarihi Arastirmalari,,,,1999
11639915,Pediatr Cerrahi Derg,,,,1990
11639915,Pediatr Cerrahi Derg,,,,1990
11639915,Pediatr Cerrahi Derg,,,,1990
11636427,Cad Casa Oswaldo Cruz,,,,1989
11636427,Cad Casa Oswaldo Cruz,,,,1989
11636421,Cad Casa Oswaldo Cruz,,,,1989
11636413,Cad Hist Saude,,,,1992
11636413,Cad Hist Saude,,,,1992
11636413,Cad Hist Saude,,,,1992
27885317,Configurations,10.1353/con.2016.0021,https://muse.jhu.edu/article/629657,Unknown,2016
27885317,Configurations,10.1353/con.2016.0021,https://muse.jhu.edu/article/629657,Unknown,2016
21344739,Configurations,,,,2009
38814129,Med Probl Perform Art,10.21091/mppa.2024.2012,https://www.ingentaconnect.com/content/scimed/mppa/2024/00000039/00000002/art00006;jsessionid=2umue9xeiyxm.x-ic-live-03,Unknown,2024
38814129,Med Probl Perform Art,10.21091/mppa.2024.2012,https://www.ingentaconnect.com/content/scimed/mppa/2024/00000039/00000002/art00006;jsessionid=2umue9xeiyxm.x-ic-live-03,Unknown,2024
34079980,Med Probl Perform Art,10.21091/mppa.2021.2010,https://www.ingentaconnect.com/content/scimed/mppa/2021/00000036/00000002/art00002;jsessionid=3ckc7h3sq1sbc.x-ic-live-02,Unknown,2021
11623730,Health Can Soc,,,,1996
11623730,Health Can Soc,,,,1996
11623724,Health Can Soc,,,,1996
11614918,Med Emory,,,,1973
11614918,Med Emory,,,,1973
11614918,Med Emory,,,,1973
11637061,Conf Hist Med,,,,1996
11637061,Conf Hist Med,,,,1996
11637056,Conf Hist Med,,,,1996
38863437,Public Underst Sci,10.1177/09636625241254505,https://journals.sagepub.com/doi/10.1177/09636625241254505,SAGE Publications,2024
38863437,Public Underst Sci,10.1177/09636625241254505,https://journals.sagepub.com/doi/10.1177/09636625241254505,SAGE Publications,2024
36718874,Public Underst Sci,10.1177/09636625221148054,https://journals.sagepub.com/doi/10.1177/09636625221148054,SAGE Publications,2023
25264399,Med Vjesn (Osijek),,,,2010
25264399,Med Vjesn (Osijek),,,,2010
11630475,Med Vjesn (Osijek),,,,1975
18354997,Med Ges Gesch Beih,,,,2007
18354997,Med Ges Gesch Beih,,,,2007
11618474,Med Ges Gesch Beih,,,,1992
11639628,Mellen Hist Med,,,,1994
11639628,Mellen Hist Med,,,,1994
11639628,Mellen Hist Med,,,,1994
11614097,Hist Med Univ South Ala Coll Med,,,,1991
11614097,Hist Med Univ South Ala Coll Med,,,,1991
11614090,Hist Med Univ South Ala Coll Med,,,,1991
11630965,Penn Med,,,,1983
11630965,Penn Med,,,,1983
11630965,Penn Med,,,,1983
27281987,Luzif Amor,,,,2016
27281987,Luzif Amor,,,,2016
24988806,Luzif Amor,,,,2014
27263220,Med Ges Gesch,,,,2016
27263220,Med Ges Gesch,,,,2016
26137642,Med Ges Gesch,,,,2015
11639112,Borsuye,,,,2000
11639112,Borsuye,,,,2000
11636570,Borsuye,,,,1995
11615143,Screening,10.1016/0925-6164(92)90025-z,https://linkinghub.elsevier.com/retrieve/pii/092561649290025Z,ScienceDirect,1992
11615143,Screening,10.1016/0925-6164(92)90025-z,https://linkinghub.elsevier.com/retrieve/pii/092561649290025Z,ScienceDirect,1992
11615143,Screening,10.1016/0925-6164(92)90025-z,https://linkinghub.elsevier.com/retrieve/pii/092561649290025Z,ScienceDirect,1992
11630903,Med Tradic,,,,1982
11630903,Med Tradic,,,,1982
11638743,Med Tradic,,,,1979
11636450,Eur Hochschulschr VII Med B Gesch Med,,,,1994
11636450,Eur Hochschulschr VII Med B Gesch Med,,,,1994
11636418,Eur Hochschulschr VII Med B Gesch Med,,,,1987
11636647,Reihe Med Forsch,,,,1997
11636647,Reihe Med Forsch,,,,1997
11636647,Reihe Med Forsch,,,,1997
11636944,Therapeutikon,,,,1991
11636944,Therapeutikon,,,,1991
11636944,Therapeutikon,,,,1991
11636441,Wien Stud Med Gesch Philos,,,,1989
11636441,Wien Stud Med Gesch Philos,,,,1989
11636441,Wien Stud Med Gesch Philos,,,,1989
11636462,Beitr Gesch Med Nebengeb,,,,1987
11636462,Beitr Gesch Med Nebengeb,,,,1987
11636462,Beitr Gesch Med Nebengeb,,,,1987
11638381,Intus,,,,1989
11638381,Intus,,,,1989
11638381,Intus,,,,1989
27116890,Rev Am Hist,10.1353/rah.2016.0017,https://muse.jhu.edu/article/612118,Unknown,2016
27116890,Rev Am Hist,10.1353/rah.2016.0017,https://muse.jhu.edu/article/612118,Unknown,2016
11623767,Rev Am Hist,,,,1999
11631259,Rev Ordem Med,,,,1990
11631259,Rev Ordem Med,,,,1990
11631259,Rev Ordem Med,,,,1990
12430561,Res Pap Hist Med Assoc,,,,1999
12430561,Res Pap Hist Med Assoc,,,,1999
12430561,Res Pap Hist Med Assoc,,,,1999
11634248,Tractrix,,,,1993
11634248,Tractrix,,,,1993
11623095,Tractrix,,,,1992
31377787,20 Century Br Hist,10.1093/tcbh/hwz024,https://academic.oup.com/crawlprevention/governor?content=%2ftcbh%2farticle%2f31%2f3%2f316%2f5543469,Oxford University Press,2019
31377787,20 Century Br Hist,10.1093/tcbh/hwz024,https://academic.oup.com/crawlprevention/governor?content=%2ftcbh%2farticle%2f31%2f3%2f316%2f5543469,Oxford University Press,2019
31230077,20 Century Br Hist,10.1093/tcbh/hwz013,https://academic.oup.com/crawlprevention/governor?content=%2ftcbh%2farticle%2f31%2f2%2f197%2f5522186,Oxford University Press,2019
18217292,Hist Comput,10.3366/hac.2001.13.2.199,https://www.euppublishing.com/doi/10.3366/hac.2001.13.2.199,Unknown,2001
18217292,Hist Comput,10.3366/hac.2001.13.2.199,https://www.euppublishing.com/doi/10.3366/hac.2001.13.2.199,Unknown,2001
12227361,Hist Comput,10.3366/hac.1999.11.3.195,https://www.euppublishing.com/doi/10.3366/hac.1999.11.3.195,Unknown,1999
38877711,Hist Psychiatry,10.1177/0957154X241254506,https://journals.sagepub.com/doi/10.1177/0957154X241254506,SAGE Publications,2024
38877711,Hist Psychiatry,10.1177/0957154X241254506,https://journals.sagepub.com/doi/10.1177/0957154X241254506,SAGE Publications,2024
36964704,Hist Psychiatry,10.1177/0957154X231163763,https://journals.sagepub.com/doi/10.1177/0957154X231163763,SAGE Publications,2023
14674439,Med Soc (Berkeley),,,,1999
14674439,Med Soc (Berkeley),,,,1999
12852409,Med Soc (Berkeley),,,,2003
11620420,Hist Neurosci,10.1076/jhin.7.1.82.13104,https://www.tandfonline.com/doi/abs/10.1076/jhin.7.1.82.13104,Taylor & Francis,1998
11620420,Hist Neurosci,10.1076/jhin.7.1.82.13104,https://www.tandfonline.com/doi/abs/10.1076/jhin.7.1.82.13104,Taylor & Francis,1998
11620420,Hist Neurosci,10.1076/jhin.7.1.82.13104,https://www.tandfonline.com/doi/abs/10.1076/jhin.7.1.82.13104,Taylor & Francis,1998
38372156,Sci Context,10.1017/S0269889724000012,https://www.cambridge.org/core/journals/science-in-context/article/botany-and-national-identities-the-tokyo-cherry/BE543642144CDEE635BC49678F115AEC,Cambridge University Press,2022
38372156,Sci Context,10.1017/S0269889724000012,https://www.cambridge.org/core/journals/science-in-context/article/botany-and-national-identities-the-tokyo-cherry/BE543642144CDEE635BC49678F115AEC,Cambridge University Press,2022
31453791,Sci Context,10.1017/S026988971900022X,https://www.cambridge.org/core/journals/science-in-context/article/educating-physicians-in-seventeenthcentury-england-addendum/C60033BF71BBAC61DE88AC1A8E8AC449,Cambridge University Press,2019
11631335,Acta Med Cathol,,,,1989
11631335,Acta Med Cathol,,,,1989
11631335,Acta Med Cathol,,,,1989
11631325,Quad Raggruppamento Toscoumbroemiliano Stor Med,,,,1988
11631325,Quad Raggruppamento Toscoumbroemiliano Stor Med,,,,1988
11631154,Quad Raggruppamento Toscoumbroemiliano Stor Med,,,,1987
11638441,Stor Med Pop,,,,1992
11638441,Stor Med Pop,,,,1992
11637914,Stor Med Pop,,,,1989
11619382,Occas Pap Med Hist Aust,,,,1993
11619382,Occas Pap Med Hist Aust,,,,1993
11619350,Occas Pap Med Hist Aust,,,,1993
11637976,Riv Stor Sci,,,,1987
11637976,Riv Stor Sci,,,,1987
11621815,Riv Stor Sci,,,,1986
11636962,Acta Belg Hist Med,,,,1996
11636962,Acta Belg Hist Med,,,,1996
11622385,Acta Belg Hist Med,,,,1990
30358378,Nuncius,,,,2017
30358378,Nuncius,,,,2017
20506898,Nuncius,10.1163/182539109x00660,https://brill.com,Unknown,2009
11622705,Newsl Soc Anc Med Pharm,,,,1989
11622705,Newsl Soc Anc Med Pharm,,,,1989
11622705,Newsl Soc Anc Med Pharm,,,,1989
11637629,Resena Hist,,,,1980
11637629,Resena Hist,,,,1980
11637629,Resena Hist,,,,1980
11631139,Quad Stor Med Sci,,,,1986
11631139,Quad Stor Med Sci,,,,1986
11631201,Quad Stor Med Sci,,,,1985
11631623,Arztl Kosmetol,,,,1987
11631623,Arztl Kosmetol,,,,1987
11631623,Arztl Kosmetol,,,,1987
11630033,Frenesie,,,,1992
11630033,Frenesie,,,,1992
11637600,Frenesie,,,,1987
32704189,Microscope,,,,2019
32704189,Microscope,,,,2019
32704189,Microscope,,,,2019
11613765,BNI Q,,,,1987
11613765,BNI Q,,,,1987
11613763,BNI Q,,,,1987
17992863,Am Herit Invent Technol,,,,2007
17992863,Am Herit Invent Technol,,,,2007
11616252,Am Herit Invent Technol,,,,1996
11613817,Chron R Coll Physicians Edinb,,,,1986
11613817,Chron R Coll Physicians Edinb,,,,1986
11613817,Chron R Coll Physicians Edinb,,,,1986
38670540,Rev Synth,10.1163/19552343-14234055,https://brill.com/view/journals/rds/145/1-2/article-p1_1.xml,Unknown,2024
38670540,Rev Synth,10.1163/19552343-14234055,https://brill.com/view/journals/rds/145/1-2/article-p1_1.xml,Unknown,2024
25311892,Rev Synth,10.1007/s11873-014-0252-4,https://brill.com/view/journals/rds/135/2-3/article-p203_4.xml,Unknown,2014
11638303,Litt Med Soc,,,,1988
11638303,Litt Med Soc,,,,1988
11638072,Litt Med Soc,,,,1985
11634518,Analytica,,,,1982
11634518,Analytica,,,,1982
11634518,Analytica,,,,1982
17993084,Med Humanit Rev,,,,2005
17993084,Med Humanit Rev,,,,2005
11621455,Med Humanit Rev,,,,1988
11635938,Sci Soc Sante,,,,1985
11635938,Sci Soc Sante,,,,1985
11635938,Sci Soc Sante,,,,1985
22043659,Sci Can,10.7202/1006149ar,https://www.erudit.org/fr/revues/scientia/2010-v33-n2-scientia1821474/1006149ar/,Unknown,2010
22043659,Sci Can,10.7202/1006149ar,https://www.erudit.org/fr/revues/scientia/2010-v33-n2-scientia1821474/1006149ar/,Unknown,2010
11612361,Sci Can,,,,1987
11613962,Med Geogr Herit,,,,1990
11613962,Med Geogr Herit,,,,1990
11613957,Med Geogr Herit,,,,1989
11637495,Rev Int Hist Psychiatr,,,,1985
11637495,Rev Int Hist Psychiatr,,,,1985
11637491,Rev Int Hist Psychiatr,,,,1985
11639542,J Ophthalmic Photogr,,,,1994
11639542,J Ophthalmic Photogr,,,,1994
11639541,J Ophthalmic Photogr,,,,1994
11616669,AARC Times,,,,1989
11616669,AARC Times,,,,1989
11616669,AARC Times,,,,1989
11640544,Kunst Ther,,,,1994
11640544,Kunst Ther,,,,1994
11640544,Kunst Ther,,,,1994
11621327,Bull Can Hist Med,10.3138/cbmh.3.1.97,https://utpjournals.press/doi/10.3138/cbmh.3.1.97,Unknown,1986
11621327,Bull Can Hist Med,10.3138/cbmh.3.1.97,https://utpjournals.press/doi/10.3138/cbmh.3.1.97,Unknown,1986
11621332,Bull Can Hist Med,10.3138/cbmh.3.2.225,https://utpjournals.press/doi/10.3138/cbmh.3.2.225,Unknown,1986
11618483,MAAS J Islam Sci,,,,1996
11618483,MAAS J Islam Sci,,,,1996
11613028,MAAS J Islam Sci,,,,1992
32076359,Dynamis,10.30827/dynamis.v39i1.8672,https://revistaseug.ugr.es/index.php/dynamis/article/view/8672,Unknown,2019
32076359,Dynamis,10.30827/dynamis.v39i1.8672,https://revistaseug.ugr.es/index.php/dynamis/article/view/8672,Unknown,2019
26012338,Dynamis,10.4321/s0211-95362015000100005,https://scielo.isciii.es:443/scielo.php?script=sci_arttext&pid=S0211-95362015000100005&lng=en&nrm=iso&tlng=en,Unknown,2015
18286751,Quipu,,,,2000
18286751,Quipu,,,,2000
11638444,Quipu,,,,1992
11640672,Soemmering Forsch,,,,1994
11640672,Soemmering Forsch,,,,1994
11631186,Soemmering Forsch,,,,1988
11613978,Beitr Hochsch Wissenschaftsgesch Erfurts,,,,1989
11613978,Beitr Hochsch Wissenschaftsgesch Erfurts,,,,1989
11629654,Beitr Hochsch Wissenschaftsgesch Erfurts,,,,1987
17078148,Trans R Soc Can,,,,2000
17078148,Trans R Soc Can,,,,2000
11616409,Trans R Soc Can,,,,1984
12284395,Action Natl,,,,1991
12284395,Action Natl,,,,1991
12342156,Action Natl,,,,1988
29144091,Vet Herit,,,,2016
29144091,Vet Herit,,,,2016
25241580,Vet Herit,,,,2014
11613921,Med Herit,,,,1986
11613921,Med Herit,,,,1986
11620872,Med Herit,,,,1985
30713360,EOS,10.1029/2018EO106651,https://eos.org/science-updates/agencies-collaborate-to-better-monitor-and-model-the-environment,Unknown,2018
30713360,EOS,10.1029/2018EO106651,https://eos.org/science-updates/agencies-collaborate-to-better-monitor-and-model-the-environment,Unknown,2018
11538673,EOS,10.1029/89eo00232,https://agupubs.onlinelibrary.wiley.com/doi/10.1029/89EO00232,Wiley,1989
11613866,Southampt Med J,,,,1989
11613866,Southampt Med J,,,,1989
11613853,Southampt Med J,,,,1988
11631956,Eesti Nsv Tead Akad TOIM Biol,,,,1981
11631956,Eesti Nsv Tead Akad TOIM Biol,,,,1981
11631955,Eesti Nsv Tead Akad TOIM Biol,,,,1979
21560594,Marbg Schrift Medgesch,,,,2010
21560594,Marbg Schrift Medgesch,,,,2010
11636680,Marbg Schrift Medgesch,,,,1983
11636877,Nieuwe Ned Bijdr Geschied Geneeskd Natuurwet,,,,1997
11636877,Nieuwe Ned Bijdr Geschied Geneeskd Natuurwet,,,,1997
11629513,Nieuwe Ned Bijdr Geschied Geneeskd Natuurwet,,,,1985
11611544,Stor Crit Psicol,,,,1984
11611544,Stor Crit Psicol,,,,1984
11611417,Stor Crit Psicol,,,,1981
11609152,Contrib Psychol,,,,1996
11609152,Contrib Psychol,,,,1996
11609140,Contrib Psychol,,,,1996
22984299,Phronesis,10.1163/156852812X629005,https://brill.com/view/journals/phro/57/2/article-p164_3.xml,Unknown,2012
22984299,Phronesis,10.1163/156852812X629005,https://brill.com/view/journals/phro/57/2/article-p164_3.xml,Unknown,2012
11613889,Phronesis,,,,1987
11611340,Indiana Med Hist Q,,,,1983
11611340,Indiana Med Hist Q,,,,1983
11611134,Indiana Med Hist Q,,,,1975
11638884,Braunschw Veroff Gesch Pharm Naturwiss,,,,1999
11638884,Braunschw Veroff Gesch Pharm Naturwiss,,,,1999
11636967,Braunschw Veroff Gesch Pharm Naturwiss,,,,1998
38475687,Zhonghua Yi Shi Za Zhi,10.3760/cma.j.cn112155-20230918-00030,https://www.yiigle.com/LinkIn.do?linkin_type=DOI&DOI=10.3760/cma.j.cn112155-20230918-00030,Unknown,2024
38475687,Zhonghua Yi Shi Za Zhi,10.3760/cma.j.cn112155-20230918-00030,https://www.yiigle.com/LinkIn.do?linkin_type=DOI&DOI=10.3760/cma.j.cn112155-20230918-00030,Unknown,2024
37183619,Zhonghua Yi Shi Za Zhi,10.3760/cma.j.cn112155-20221025-00153,https://www.yiigle.com/LinkIn.do?linkin_type=DOI&DOI=10.3760/cma.j.cn112155-20221025-00153,Unknown,2023
21999003,Nova Acta Paracelsica,,,,2010
21999003,Nova Acta Paracelsica,,,,2010
11634104,Nova Acta Paracelsica,,,,1987
19856539,Newsl Hist Anthropol,,,,2008
19856539,Newsl Hist Anthropol,,,,2008
11615882,Newsl Hist Anthropol,,,,1977
22834068,Hist Sci (Tokyo),,,,2012
22834068,Hist Sci (Tokyo),,,,2012
15212040,Hist Sci (Tokyo),,,,2004
11628360,An Soc Mex Hist Cienc Tec,,,,1979
11628360,An Soc Mex Hist Cienc Tec,,,,1979
11628359,An Soc Mex Hist Cienc Tec,,,,1979
11630715,Rev Soc Fr Hist Art Dent,,,,1979
11630715,Rev Soc Fr Hist Art Dent,,,,1979
11630718,Rev Soc Fr Hist Art Dent,,,,1979
11640685,Rev Soc Venez Hist Med,,,,1993
11640685,Rev Soc Venez Hist Med,,,,1993
11640765,Rev Soc Venez Hist Med,,,,1990
11639153,Istor Biol Issled,,,,1997
11639153,Istor Biol Issled,,,,1997
11629790,Istor Biol Issled,,,,1989
19115508,Tijdschr Geschied Geneeskd Natuurwet Wiskd Tech,,,,2002
19115508,Tijdschr Geschied Geneeskd Natuurwet Wiskd Tech,,,,2002
11634412,Tijdschr Geschied Geneeskd Natuurwet Wiskd Tech,,,,1984
11629809,Fundam Sci,,,,1988
11629809,Fundam Sci,,,,1988
11637643,Fundam Sci,,,,1987
11623622,Folia Mendeliana,,,,1996
11623622,Folia Mendeliana,,,,1996
11615576,Folia Mendeliana,,,,1970
14969236,Arb Gesch Med Giessen,,,,2003
14969236,Arb Gesch Med Giessen,,,,2003
11636966,Arb Gesch Med Giessen,,,,1998
38808100,Minerva,10.1007/s11024-023-09520-0,https://link.springer.com/article/10.1007/s11024-023-09520-0,Springer,2024
38808100,Minerva,10.1007/s11024-023-09520-0,https://link.springer.com/article/10.1007/s11024-023-09520-0,Springer,2024
15168663,Minerva,10.1023/a:1015001429180,https://link.springer.com/article/10.1023/A:1015001429180,Springer,2002
38752929,J Histotechnol,10.1080/01478885.2024.2352695,https://www.tandfonline.com/doi/full/10.1080/01478885.2024.2352695,Taylor & Francis,2024
38752929,J Histotechnol,10.1080/01478885.2024.2352695,https://www.tandfonline.com/doi/full/10.1080/01478885.2024.2352695,Taylor & Francis,2024
36164847,J Histotechnol,10.1080/01478885.2022.2122653,https://www.tandfonline.com/doi/full/10.1080/01478885.2022.2122653,Taylor & Francis,2023
14653257,Publ Am Inst Hist Pharm,,,,2002
14653257,Publ Am Inst Hist Pharm,,,,2002
11619896,Publ Am Inst Hist Pharm,,,,1997
21954497,Adler Mus Bull,,,,2011
21954497,Adler Mus Bull,,,,2011
11619794,Adler Mus Bull,,,,1996
11633424,Unesco Bull Libr,,,,1977
11633424,Unesco Bull Libr,,,,1977
11633424,Unesco Bull Libr,,,,1977
11639283,N Y Med Q,,,,1986
11639283,N Y Med Q,,,,1986
11650763,N Y Med Q,,,,1985
11630753,Schweiz Arzteztg,,,,1980
11630753,Schweiz Arzteztg,,,,1980
20250560,Schweiz Arzteztg,,,,1946
38639323,Ber Wiss,10.1002/bewi.202300027,https://onlinelibrary.wiley.com/doi/10.1002/bewi.202300027,Wiley,2024
38639323,Ber Wiss,10.1002/bewi.202300027,https://onlinelibrary.wiley.com/doi/10.1002/bewi.202300027,Wiley,2024
37428469,Ber Wiss,10.1002/bewi.202200050,https://onlinelibrary.wiley.com/doi/10.1002/bewi.202200050,Wiley,2023
11613602,Arsberet Kbh Univ Med Hist Inst Mus,,,,1971
11613602,Arsberet Kbh Univ Med Hist Inst Mus,,,,1971
11613600,Arsberet Kbh Univ Med Hist Inst Mus,,,,1971
11640808,Acta Hist Med Vallisoletana Monogr,,,,1993
11640808,Acta Hist Med Vallisoletana Monogr,,,,1993
11640777,Acta Hist Med Vallisoletana Monogr,,,,1982
11611671,Bookman,,,,1984
11611671,Bookman,,,,1984
11615613,Bookman,,,,1977
11611130,Stud Philos Med,,,,1977
11611130,Stud Philos Med,,,,1977
11611129,Stud Philos Med,,,,1977
38860123,Oral Hist Rev,10.1080/00940798.2023.2284391,https://www.tandfonline.com/doi/full/10.1080/00940798.2023.2284391,Taylor & Francis,2024
38860123,Oral Hist Rev,10.1080/00940798.2023.2284391,https://www.tandfonline.com/doi/full/10.1080/00940798.2023.2284391,Taylor & Francis,2024
11623931,Oral Hist Rev,10.1093/ohr/26.2.181,https://www.tandfonline.com/doi/full/10.1093/ohr/26.2.181,Taylor & Francis,1999
11652804,Hamdard Med,,,,1993
11652804,Hamdard Med,,,,1993
11614013,Hamdard Med,,,,1990
11636869,Weleda Korrespondenzbl Aerzte,,,,1975
11636869,Weleda Korrespondenzbl Aerzte,,,,1975
11636869,Weleda Korrespondenzbl Aerzte,,,,1975
11623787,Psychohist Rev,,,,1999
11623787,Psychohist Rev,,,,1999
11611393,Psychohist Rev,,,,1980
11616318,J Hist Arabic Sci,,,,1992
11616318,J Hist Arabic Sci,,,,1992
11615789,J Hist Arabic Sci,,,,1979
11640828,Niedersachs Arztebl,,,,1993
11640828,Niedersachs Arztebl,,,,1993
11640828,Niedersachs Arztebl,,,,1993
11636483,Arztebl Baden Wurtt,,,,1968
11636483,Arztebl Baden Wurtt,,,,1968
11636483,Arztebl Baden Wurtt,,,,1968
11639117,Cuad Valencia Hist Med Cienc,,,,1999
11639117,Cuad Valencia Hist Med Cienc,,,,1999
11640635,Cuad Valencia Hist Med Cienc,,,,1994
21598583,Stud Gesch Krankenhauswesens,,,,2004
21598583,Stud Gesch Krankenhauswesens,,,,2004
11636603,Stud Gesch Krankenhauswesens,,,,1994
11609154,Rep Inst Hum Values,,,,1976
11609154,Rep Inst Hum Values,,,,1976
11609154,Rep Inst Hum Values,,,,1976
18506944,Ann Ist Mus Stor Sci Fir,,,,2001
18506944,Ann Ist Mus Stor Sci Fir,,,,2001
11634546,Ann Ist Mus Stor Sci Fir,,,,1982
28479657,Race Cl,10.1177/0306396816642997,https://journals.sagepub.com/doi/10.1177/0306396816642997,SAGE Publications,2016
28479657,Race Cl,10.1177/0306396816642997,https://journals.sagepub.com/doi/10.1177/0306396816642997,SAGE Publications,2016
20939156,Race Cl,10.1177/0306396810377012,https://journals.sagepub.com/doi/10.1177/0306396810377012,SAGE Publications,2010
14738069,Wurzbg Medizinhist Forsch,,,,2003
14738069,Wurzbg Medizinhist Forsch,,,,2003
12051272,Wurzbg Medizinhist Forsch,,,,2002
11630239,Sydsven Medicinhist Sallsk Arsskr,,,,1996
11630239,Sydsven Medicinhist Sallsk Arsskr,,,,1996
11613299,Sydsven Medicinhist Sallsk Arsskr,,,,1995
11627751,An Chil Hist Med,,,,1972
11627751,An Chil Hist Med,,,,1972
11633910,An Chil Hist Med,,,,1969
32089585,J Fam Hist,10.1177/0363199019865924,https://journals.sagepub.com/doi/10.1177/0363199019865924,SAGE Publications,2020
32089585,J Fam Hist,10.1177/0363199019865924,https://journals.sagepub.com/doi/10.1177/0363199019865924,SAGE Publications,2020
17152231,J Fam Hist,10.1177/0363199005284958,https://journals.sagepub.com/doi/10.1177/0363199005284958,SAGE Publications,2006
22849247,Hist Med Vet,,,,2011
22849247,Hist Med Vet,,,,2011
11762406,Hist Med Vet,,,,2001
11614561,Hist Child Q,,,,1976
11614561,Hist Child Q,,,,1976
11614552,Hist Child Q,,,,1975
11640057,Chin Sci,,,,1995
11640057,Chin Sci,,,,1995
11609979,Chin Sci,,,,1977
11630333,An Med (Barc),,,,1973
11630333,An Med (Barc),,,,1973
11630333,An Med (Barc),,,,1973
11613689,Hexagon Roche Engl,,,,1981
11613689,Hexagon Roche Engl,,,,1981
11613688,Hexagon Roche Engl,,,,1981
38164518,Interdiscip Sci Rev,10.1080/03080188.2022.2075201,https://journals.sagepub.com/doi/full/10.1080/03080188.2022.2075201,SAGE Publications,2023
38164518,Interdiscip Sci Rev,10.1080/03080188.2022.2075201,https://journals.sagepub.com/doi/full/10.1080/03080188.2022.2075201,SAGE Publications,2023
27365563,Interdiscip Sci Rev,10.1080/03080188.2016.1165456,https://journals.sagepub.com/doi/full/10.1080/03080188.2016.1165456,SAGE Publications,2015
11615218,Ann Univ Sci Budap Rolando Eotvos Nominatae Biol,,,,1979
11615218,Ann Univ Sci Budap Rolando Eotvos Nominatae Biol,,,,1979
11615216,Ann Univ Sci Budap Rolando Eotvos Nominatae Biol,,,,1979
11621373,Soc Soc Hist Med Bull (Lond),,,,1987
11621373,Soc Soc Hist Med Bull (Lond),,,,1987
11611891,Soc Soc Hist Med Bull (Lond),,,,1985
18175652,Bull Indian Inst Hist Med Hyderabad,,,,2006
18175652,Bull Indian Inst Hist Med Hyderabad,,,,2006
12596764,Bull Indian Inst Hist Med Hyderabad,,,,1998
11622987,Trans Hunter Soc,,,,1988
11622987,Trans Hunter Soc,,,,1988
11615710,Trans Hunter Soc,,,,1972
11630451,Rev Fac Med Univ Nac Auton Mex,,,,1966
11630451,Rev Fac Med Univ Nac Auton Mex,,,,1966
11630451,Rev Fac Med Univ Nac Auton Mex,,,,1966
11626634,Rev Soc Mex Hist Nat,,,,1969
11626634,Rev Soc Mex Hist Nat,,,,1969
11626634,Rev Soc Mex Hist Nat,,,,1969
27263195,Proc Am Philos Soc,,,,2015
27263195,Proc Am Philos Soc,,,,2015
23035389,Proc Am Philos Soc,,,,2012
27501577,Hist Hosp,,,,2014
27501577,Hist Hosp,,,,2014
27501544,Hist Hosp,,,,2014
11627287,Bol Soc Esp Hist Med,,,,1975
11627287,Bol Soc Esp Hist Med,,,,1975
11627286,Bol Soc Esp Hist Med,,,,1975
11638020,Bol Soc Esp Hist Farm,,,,1988
11638020,Bol Soc Esp Hist Farm,,,,1988
11629620,Bol Soc Esp Hist Farm,,,,1987
11638603,Ann Soc Belg Hist Hop,,,,1993
11638603,Ann Soc Belg Hist Hop,,,,1993
11638021,Ann Soc Belg Hist Hop,,,,1985
38842107,Soc Stud Sci,10.1177/03063127241257489,https://journals.sagepub.com/doi/10.1177/03063127241257489,SAGE Publications,2024
38842107,Soc Stud Sci,10.1177/03063127241257489,https://journals.sagepub.com/doi/10.1177/03063127241257489,SAGE Publications,2024
37916761,Soc Stud Sci,10.1177/03063127231201178,https://journals.sagepub.com/doi/10.1177/03063127231201178,SAGE Publications,2023
11614754,J Inst Actuar,10.1017/s0020268100036295,https://www.cambridge.org/core/journals/journal-of-the-institute-of-actuaries/article/abs/span-of-life/B0A9EE27DB2079F8670BA2A586BEFCF1,Cambridge University Press,1982
11614754,J Inst Actuar,10.1017/s0020268100036295,https://www.cambridge.org/core/journals/journal-of-the-institute-of-actuaries/article/abs/span-of-life/B0A9EE27DB2079F8670BA2A586BEFCF1,Cambridge University Press,1982
11614755,J Inst Actuar,10.1017/s0020268100036131,https://www.cambridge.org/core/journals/journal-of-the-institute-of-actuaries/article/abs/improving-accuracy-of-the-basic-data-and-the-exposedtorisk-of-the-english-life-tables/95AA599A10BEBAC49D7ADC2BB14ECF81,Cambridge University Press,1982
11631707,Bull Inst Fond Afr Noire Ser B,,,,1968
11631707,Bull Inst Fond Afr Noire Ser B,,,,1968
11631707,Bull Inst Fond Afr Noire Ser B,,,,1968
27382704,Bull Cercle Benelux Hist Pharm,,,,2016
27382704,Bull Cercle Benelux Hist Pharm,,,,2016
11639074,Bull Cercle Benelux Hist Pharm,,,,1999
15015504,Ann R Coll Physicians Surg Can,,,,2002
15015504,Ann R Coll Physicians Surg Can,,,,2002
15015501,Ann R Coll Physicians Surg Can,,,,2002
11638612,Hist Nat,,,,1993
11638612,Hist Nat,,,,1993
11627845,Hist Nat,,,,1978
11675744,Bull Mem Soc Anthropol Paris,,,,1973
11675744,Bull Mem Soc Anthropol Paris,,,,1973
11675744,Bull Mem Soc Anthropol Paris,,,,1973
18939347,Rev Hist Sci (Paris),10.3406/rhs.2000.2098,https://www.persee.fr/doc/rhs_0151-4105_2000_num_53_3_2098,Unknown,2000
18939347,Rev Hist Sci (Paris),10.3406/rhs.2000.2098,https://www.persee.fr/doc/rhs_0151-4105_2000_num_53_3_2098,Unknown,2000
11639032,Rev Hist Sci (Paris),,,,1973
11614246,Aust N Z J Sociol,10.1177/144078338602200204,https://journals.sagepub.com/doi/10.1177/144078338602200204,SAGE Publications,1986
11614246,Aust N Z J Sociol,10.1177/144078338602200204,https://journals.sagepub.com/doi/10.1177/144078338602200204,SAGE Publications,1986
11631632,Aust N Z J Sociol,10.1177/144078337601200107,https://journals.sagepub.com/doi/10.1177/144078337601200107,SAGE Publications,1976
11616536,Yearb Am Philos Soc,,,,1968
11616536,Yearb Am Philos Soc,,,,1968
11616536,Yearb Am Philos Soc,,,,1968
11634409,G Accad Med Torino,,,,1980
11634409,G Accad Med Torino,,,,1980
11634409,G Accad Med Torino,,,,1980
11624978,Nord Medicinhist Arsb,,,,1996
11624978,Nord Medicinhist Arsb,,,,1996
11612924,Nord Medicinhist Arsb,,,,1992
20607890,Pap Bibliogr Soc Am,10.1086/pbsa.103.4.24293890,https://www.journals.uchicago.edu/doi/10.1086/pbsa.103.4.24293890,Unknown,2009
20607890,Pap Bibliogr Soc Am,10.1086/pbsa.103.4.24293890,https://www.journals.uchicago.edu/doi/10.1086/pbsa.103.4.24293890,Unknown,2009
11609681,Pap Bibliogr Soc Am,10.1086/pbsa.64.1.24301792,https://www.journals.uchicago.edu/doi/10.1086/pbsa.64.1.24301792,Unknown,1970
19618535,Bibliofilia,,,,2008
19618535,Bibliofilia,,,,2008
11630111,Bibliofilia,,,,1992
18928008,Bodleian Libr Rec,,,,2001
18928008,Bodleian Libr Rec,,,,2001
11616690,Bodleian Libr Rec,,,,1981
12240696,Harv Libr Bull,,,,2000
12240696,Harv Libr Bull,,,,2000
12240695,Harv Libr Bull,,,,2000
11611046,Acad Bookman,,,,1978
11611046,Acad Bookman,,,,1978
11609364,Acad Bookman,,,,1974
11633594,Wilson Libr Bull,,,,1982
11633594,Wilson Libr Bull,,,,1982
11633593,Wilson Libr Bull,,,,1982
11636301,Z Bibliothekswes Bibliogr,,,,1969
11636301,Z Bibliothekswes Bibliogr,,,,1969
11636301,Z Bibliothekswes Bibliogr,,,,1969
11632497,Lib Sci Slant Doc,,,,1968
11632497,Lib Sci Slant Doc,,,,1968
11632497,Lib Sci Slant Doc,,,,1968
29375158,Libr Trends,10.1353/lib.2017.0018,https://muse.jhu.edu/article/669457,Unknown,2017
29375158,Libr Trends,10.1353/lib.2017.0018,https://muse.jhu.edu/article/669457,Unknown,2017
11614877,Libr Trends,,,,1982
11622472,Janus,,,,1986
11622472,Janus,,,,1986
11610197,Janus,,,,1976
25729094,Korot,,,,2014
25729094,Korot,,,,2014
11624317,Korot,,,,1998
11626484,Monspel Hippocrates,,,,1970
11626484,Monspel Hippocrates,,,,1970
11626602,Monspel Hippocrates,,,,1970
11631643,Berl Stat,,,,1977
11631643,Berl Stat,,,,1977
18896545,Berl Stat,,,,1947
12751501,Zur Medizingesch Abh,,,,2002
12751501,Zur Medizingesch Abh,,,,2002
11710374,Zur Medizingesch Abh,,,,2000
11636212,Vopr Filos,,,,1981
11636212,Vopr Filos,,,,1981
11633512,Vopr Filos,,,,1981
11635688,Rev Fac Med Tucuman,,,,1964
11635688,Rev Fac Med Tucuman,,,,1964
11635688,Rev Fac Med Tucuman,,,,1964
27491172,Theriaca,,,,2016
27491172,Theriaca,,,,2016
11629707,Theriaca,,,,1988
38766966,Technol Cult,10.1353/tech.2024.a926320,https://muse.jhu.edu/article/926320,Unknown,2024
38766966,Technol Cult,10.1353/tech.2024.a926320,https://muse.jhu.edu/article/926320,Unknown,2024
38588241,Technol Cult,10.1353/tech.2023.0105,https://muse.jhu.edu/article/893090,Unknown,2023
24733955,Soc Res (New York),,,,2011
24733955,Soc Res (New York),,,,2011
20285192,Soc Res (New York),,,,1946
11630911,Sci Cult,,,,1979
11630911,Sci Cult,,,,1979
11630911,Sci Cult,,,,1979
11616412,St Marys Hosp Gaz,,,,1987
11616412,St Marys Hosp Gaz,,,,1987
20275666,St Marys Hosp Gaz,,,,1946
11636459,Rheinisches Arztebl,,,,1972
11636459,Rheinisches Arztebl,,,,1972
11636459,Rheinisches Arztebl,,,,1972
11634339,Rev Belg Homoeopath,,,,1977
11634339,Rev Belg Homoeopath,,,,1977
11634339,Rev Belg Homoeopath,,,,1977
36618767,Rev Relig Res,10.1007/s13644-022-00523-z,https://journals.sagepub.com/doi/10.1007/s13644-022-00523-z,SAGE Publications,2022
36618767,Rev Relig Res,10.1007/s13644-022-00523-z,https://journals.sagepub.com/doi/10.1007/s13644-022-00523-z,SAGE Publications,2022
25580034,Rev Relig Res,10.1007/s13644-013-0144-z,https://journals.sagepub.com/doi/10.1007/s13644-013-0144-z,SAGE Publications,2014
11639142,Quellen Stud Gesch Pharm,,,,1999
11639142,Quellen Stud Gesch Pharm,,,,1999
11636583,Quellen Stud Gesch Pharm,,,,1995
11632701,Philos J,,,,1974
11632701,Philos J,,,,1974
11632701,Philos J,,,,1974
11617810,New Philos,,,,1988
11617810,New Philos,,,,1988
11617810,New Philos,,,,1988
11613669,N J J Pharm,,,,1983
11613669,N J J Pharm,,,,1983
18913622,N J J Pharm,,,,1948
11625872,Med Gesch Kult,,,,1995
11625872,Med Gesch Kult,,,,1995
11625872,Med Gesch Kult,,,,1995
11610905,Igakushi Kenkyu,,,,1980
11610905,Igakushi Kenkyu,,,,1980
11610874,Igakushi Kenkyu,,,,1977
11630034,Stud Mater Dziej Nauk Pol Ser B,,,,1985
11630034,Stud Mater Dziej Nauk Pol Ser B,,,,1985
11636056,Stud Mater Dziej Nauk Pol Ser B,,,,1984
38770782,Hist Sci,10.1177/00732753241252478,https://journals.sagepub.com/doi/10.1177/00732753241252478,SAGE Publications,2024
38770782,Hist Sci,10.1177/00732753241252478,https://journals.sagepub.com/doi/10.1177/00732753241252478,SAGE Publications,2024
35466747,Hist Sci,10.1177/00732753221090435,https://journals.sagepub.com/doi/10.1177/00732753221090435,SAGE Publications,2023
11635020,Hess Arztebl,,,,1976
11635020,Hess Arztebl,,,,1976
11632076,Hess Arztebl,,,,1972
11634284,Bull Inform Fed Pharm Mediterr,,,,1974
11634284,Bull Inform Fed Pharm Mediterr,,,,1974
11634284,Bull Inform Fed Pharm Mediterr,,,,1974
11627055,Cuad Hist Med Esp,,,,1975
11627055,Cuad Hist Med Esp,,,,1975
11626530,Cuad Hist Med Esp,,,,1970
11637065,Beitr Wurttemb Apothekengesch,,,,1995
11637065,Beitr Wurttemb Apothekengesch,,,,1995
11629687,Beitr Wurttemb Apothekengesch,,,,1984
11678119,Anthropologia,,,,1976
11678119,Anthropologia,,,,1976
11678119,Anthropologia,,,,1976
36619177,Am J Phys,10.1119/10.0006965,https://pubs.aip.org/aapt/ajp/article/90/3/169/2819818/The-crane-operator-s-trick-and-other-shenanigans,Unknown,2022
36619177,Am J Phys,10.1119/10.0006965,https://pubs.aip.org/aapt/ajp/article/90/3/169/2819818/The-crane-operator-s-trick-and-other-shenanigans,Unknown,2022
33363291,Am J Phys,10.1119/1.1491264,https://pubs.aip.org/aapt/ajp/article-abstract/70/10/1029/310595/Averaging-of-harmonic-physical-fields-over-an?redirectedFrom=fulltext,Unknown,2002
27587904,Am Arch,10.17723/0360-9081.79.1.82,https://meridian.allenpress.com/doi/10.17723/0360-9081.79.1.82,Unknown,2016
27587904,Am Arch,10.17723/0360-9081.79.1.82,https://meridian.allenpress.com/doi/10.17723/0360-9081.79.1.82,Unknown,2016
11609617,Am Arch,10.17723/aarc.34.1.7307136552558342,https://meridian.allenpress.com/american-archivist/article/34/1/13/22616/The-Archives-of-the-History-of-American-Psychology,Unknown,1971
38660777,Ambix,10.1080/00026980.2024.2343517,https://www.tandfonline.com/doi/full/10.1080/00026980.2024.2343517,Taylor & Francis,2024
38660777,Ambix,10.1080/00026980.2024.2343517,https://www.tandfonline.com/doi/full/10.1080/00026980.2024.2343517,Taylor & Francis,2024
33512298,Ambix,10.1080/00026980.2020.1868862,https://www.tandfonline.com/doi/full/10.1080/00026980.2020.1868862,Taylor & Francis,2021
11631122,Am Indig,,,,1986
11631122,Am Indig,,,,1986
11630780,Am Indig,,,,1971
11675739,Acta Med Hist Patav,,,,1989
11675739,Acta Med Hist Patav,,,,1989
11638205,Acta Med Hist Patav,,,,1987
12785325,Abh Gesch Med Naturwiss,,,,2003
12785325,Abh Gesch Med Naturwiss,,,,2003
12227363,Abh Gesch Med Naturwiss,,,,2002
38910111,Omega (Westport),10.1177/00302228241263632,https://journals.sagepub.com/doi/10.1177/00302228241263632,SAGE Publications,2024
38910111,Omega (Westport),10.1177/00302228241263632,https://journals.sagepub.com/doi/10.1177/00302228241263632,SAGE Publications,2024
38415297,Omega (Westport),10.1177/00302228241232731,https://journals.sagepub.com/doi/10.1177/00302228241232731,SAGE Publications,2024
11629043,Ethnomedizin,,,,1981
11629043,Ethnomedizin,,,,1981
11627340,Ethnomedizin,,,,1972
30183149,Yakushigaku Zasshi,,,,2016
30183149,Yakushigaku Zasshi,,,,2016
22164691,Yakushigaku Zasshi,,,,2011
11634438,Osterr Arzteztg,,,,1989
11634438,Osterr Arzteztg,,,,1989
21213638,Osterr Arzteztg,,,,1971
11640796,Barc Quir,,,,1995
11640796,Barc Quir,,,,1995
11640796,Barc Quir,,,,1995
11613593,US Navy Med News Lett,,,,1970
11613593,US Navy Med News Lett,,,,1970
11613593,US Navy Med News Lett,,,,1970
26875298,Orvostort Kozl,,,,2015
26875298,Orvostort Kozl,,,,2015
20481110,Orvostort Kozl,,,,2009
11613761,Zool Jahrb Abt Anat Ontogenie Tiere,,,,1987
11613761,Zool Jahrb Abt Anat Ontogenie Tiere,,,,1987
11613761,Zool Jahrb Abt Anat Ontogenie Tiere,,,,1987
29983477,Vet Hist,,,,2017
29983477,Vet Hist,,,,2017
11619288,Vet Hist,,,,1994
11630799,Carol J Pharm,,,,1980
11630799,Carol J Pharm,,,,1980
11630799,Carol J Pharm,,,,1980
11637248,Rev Hist Med Heb,,,,1985
11637248,Rev Hist Med Heb,,,,1985
11627535,Rev Hist Med Heb,,,,1977
37680210,Scientia,10.33548/SCIENTIA815,https://www.scientia.global/the-biomedical-entrepreneurship-skills-development-program-beep-educating-a-new-generation-of-medical-innovators/,Unknown,2023
37680210,Scientia,10.33548/SCIENTIA815,https://www.scientia.global/the-biomedical-entrepreneurship-skills-development-program-beep-educating-a-new-generation-of-medical-innovators/,Unknown,2023
11637260,Scientia,,,,1983
11627881,Sem Med,,,,1979
11627881,Sem Med,,,,1979
11628071,Sem Med,,,,1973
26113752,Biogr Mem Fellows R Soc,10.1098/rsbm.2012.0038,https://royalsocietypublishing.org/doi/10.1098/rsbm.2012.0038,Unknown,2013
26113752,Biogr Mem Fellows R Soc,10.1098/rsbm.2012.0038,https://royalsocietypublishing.org/doi/10.1098/rsbm.2012.0038,Unknown,2013
11615365,Biogr Mem Fellows R Soc,,,,1995
23894209,Ethnology,,,,2008
23894209,Ethnology,,,,2008
17953049,Ethnology,,,,2001
38804961,Popul Stud (Camb),10.1080/00324728.2024.2345070,https://www.tandfonline.com/doi/full/10.1080/00324728.2024.2345070,Taylor & Francis,2024
38804961,Popul Stud (Camb),10.1080/00324728.2024.2345070,https://www.tandfonline.com/doi/full/10.1080/00324728.2024.2345070,Taylor & Francis,2024
38085530,Popul Stud (Camb),10.1080/00324728.2023.2273466,https://www.tandfonline.com/doi/full/10.1080/00324728.2023.2273466,Taylor & Francis,2023
11634417,Psychol Rundsch,,,,1980
11634417,Psychol Rundsch,,,,1980
11634417,Psychol Rundsch,,,,1980
11635332,Vestis Lat Psr Zinat Akad,,,,1987
11635332,Vestis Lat Psr Zinat Akad,,,,1987
11632486,Vestis Lat Psr Zinat Akad,,,,1981
11609332,Indian J Hist Med,,,,1974
11609332,Indian J Hist Med,,,,1974
11609331,Indian J Hist Med,,,,1974
37638129,J Fluor Chem,10.1016/j.jfluchem.2023.110087,https://linkinghub.elsevier.com/retrieve/pii/S0022113923000039,ScienceDirect,2023
37638129,J Fluor Chem,10.1016/j.jfluchem.2023.110087,https://linkinghub.elsevier.com/retrieve/pii/S0022113923000039,ScienceDirect,2023
19802334,J Fluor Chem,10.1016/j.jfluchem.2008.05.001,https://linkinghub.elsevier.com/retrieve/pii/S0022113908001139,ScienceDirect,2008
26155600,Arch Int Hist Sci (Paris),10.1484/j.arihs.5.110288,https://www.brepolsonline.net/doi/10.1484/J.ARIHS.5.110288,Unknown,2014
26155600,Arch Int Hist Sci (Paris),10.1484/j.arihs.5.110288,https://www.brepolsonline.net/doi/10.1484/J.ARIHS.5.110288,Unknown,2014
11621147,Arch Int Hist Sci (Paris),,,,1985
11610444,Synthesis (Mass),,,,1978
11610444,Synthesis (Mass),,,,1978
11610444,Synthesis (Mass),,,,1978
29693833,Med Hist (Barc),,,,2016
29693833,Med Hist (Barc),,,,2016
11634193,Med Hist (Barc),,,,1991
11625898,Schriftenr Gesch Versamml Dtsch Naturforsch Arzte,,,,1996
11625898,Schriftenr Gesch Versamml Dtsch Naturforsch Arzte,,,,1996
11625898,Schriftenr Gesch Versamml Dtsch Naturforsch Arzte,,,,1996
11638888,Quad Stor Univ Padova,,,,1998
11638888,Quad Stor Univ Padova,,,,1998
11630132,Quad Stor Univ Padova,,,,1989
38801443,NTM,10.1007/s00048-024-00389-y,https://link.springer.com/article/10.1007/s00048-024-00389-y,Springer,2024
38801443,NTM,10.1007/s00048-024-00389-y,https://link.springer.com/article/10.1007/s00048-024-00389-y,Springer,2024
38319387,NTM,10.1007/s00048-024-00375-4,https://link.springer.com/article/10.1007/s00048-024-00375-4,Springer,2024
11633678,Wiss Z Karl Marx Univ Math Naturwiss,,,,1979
11633678,Wiss Z Karl Marx Univ Math Naturwiss,,,,1979
11636342,Wiss Z Karl Marx Univ Math Naturwiss,,,,1973
11631702,Bull Audiophonol,,,,1980
11631702,Bull Audiophonol,,,,1980
11631702,Bull Audiophonol,,,,1980
11640615,Freib Forsch Medizingesch,,,,1994
11640615,Freib Forsch Medizingesch,,,,1994
11640614,Freib Forsch Medizingesch,,,,1994
30351838,Kagakushi Kenkyu,,,,2016
30351838,Kagakushi Kenkyu,,,,2016
11675717,Kagakushi Kenkyu,,,,1975
11636572,Schriftenr Ges Freunde Med Hochsch Hannover,,,,1967
11636572,Schriftenr Ges Freunde Med Hochsch Hannover,,,,1967
11636572,Schriftenr Ges Freunde Med Hochsch Hannover,,,,1967
16060044,Asklepii,,,,2002
16060044,Asklepii,,,,2002
16060039,Asklepii,,,,2002
11637106,Rev Int Hist Mil,,,,1997
11637106,Rev Int Hist Mil,,,,1997
11640474,Rev Int Hist Mil,,,,1989
11634665,Bol Antropol,,,,1983
11634665,Bol Antropol,,,,1983
11634665,Bol Antropol,,,,1983
11631515,Ann Geogr,,,,1980
11631515,Ann Geogr,,,,1980
11631515,Ann Geogr,,,,1980
37293466,Humanitas,10.26555/humanitas.v19i1.10,http://journal1.uad.ac.id/index.php/Humanitas/article/view/10,Unknown,2022
37293466,Humanitas,10.26555/humanitas.v19i1.10,http://journal1.uad.ac.id/index.php/Humanitas/article/view/10,Unknown,2022
37293466,Humanitas,10.26555/humanitas.v19i1.10,http://journal1.uad.ac.id/index.php/Humanitas/article/view/10,Unknown,2022
11633351,Tanzan Notes Rec,,,,1981
11633351,Tanzan Notes Rec,,,,1981
11633351,Tanzan Notes Rec,,,,1981
11631957,Effluent Water Treat J,,,,1969
11631957,Effluent Water Treat J,,,,1969
11631957,Effluent Water Treat J,,,,1969
11635389,Midway,,,,1968
11635389,Midway,,,,1968
11635389,Midway,,,,1968
11630947,Hist Med,,,,1981
11630947,Hist Med,,,,1981
11678111,Hist Med,,,,1980
11640548,Etudes Freud,,,,1994
11640548,Etudes Freud,,,,1994
11640548,Etudes Freud,,,,1994
30204323,Hist Sci Med,,,,2016
30204323,Hist Sci Med,,,,2016
26492676,Hist Sci Med,,,,2015
11638963,Dusseld Arb Gesch Med Beih,,,,1999
11638963,Dusseld Arb Gesch Med Beih,,,,1999
11638963,Dusseld Arb Gesch Med Beih,,,,1999
27489393,Local Popul Stud,,,,2016
27489393,Local Popul Stud,,,,2016
20509432,Local Popul Stud,,,,2009
26339116,Wiss Beitr Martin Luther Univ Halle Wittenberg,,,,2012
26339116,Wiss Beitr Martin Luther Univ Halle Wittenberg,,,,2012
11628961,Wiss Beitr Martin Luther Univ Halle Wittenberg,,,,1983
11639687,Indian J Hist Sci,,,,1994
11639687,Indian J Hist Sci,,,,1994
11621788,Indian J Hist Sci,,,,1986
19069205,Mendel Newsl,,,,2007
19069205,Mendel Newsl,,,,2007
11620779,Mendel Newsl,,,,1985
11636492,Kieler Beitr Gesch Med Pharm,,,,1995
11636492,Kieler Beitr Gesch Med Pharm,,,,1995
11640542,Kieler Beitr Gesch Med Pharm,,,,1994
11635294,Kiryat Sefer,,,,1966
11635294,Kiryat Sefer,,,,1966
11635294,Kiryat Sefer,,,,1966
29999272,Pharm Hist (Lond),,,,2016
29999272,Pharm Hist (Lond),,,,2016
24620478,Pharm Hist (Lond),,,,2012
38832885,Br J Hist Sci,10.1017/S0007087424000712,https://www.cambridge.org/core/journals/british-journal-for-the-history-of-science/article/concluding-conversation-decentring-science-diplomacy-corrigendum/B20301AEF1985AA674B2A202A176D452,Cambridge University Press,2024
38832885,Br J Hist Sci,10.1017/S0007087424000712,https://www.cambridge.org/core/journals/british-journal-for-the-history-of-science/article/concluding-conversation-decentring-science-diplomacy-corrigendum/B20301AEF1985AA674B2A202A176D452,Cambridge University Press,2024
35043781,Br J Hist Sci,10.1017/S0007087421000820,https://www.cambridge.org/core/journals/british-journal-for-the-history-of-science/article/comparative-globalizations-building-and-dismantling-genetic-laboratories-in-lebanon/5E248827702CC0CC79D148EB7C7E61FF,Cambridge University Press,2022
11633980,Episteme,,,,1976
11633980,Episteme,,,,1976
11627096,Episteme,,,,1970
26897806,Pharm Hist,10.26506/pharmhist.57.1-2.0017,https://www.jstor.org/stable/10.26506/pharmhist.57.1-2.0017,JSTOR,2015
26897806,Pharm Hist,10.26506/pharmhist.57.1-2.0017,https://www.jstor.org/stable/10.26506/pharmhist.57.1-2.0017,JSTOR,2015
27416657,Pharm Hist,10.26506/pharmhist.56.1-2.0003,https://www.jstor.org/stable/10.26506/pharmhist.56.1-2.0003,JSTOR,2014
11637040,Bibl Wiss,,,,1988
11637040,Bibl Wiss,,,,1988
11637040,Bibl Wiss,,,,1988
11637079,Atene Roma,,,,1974
11637079,Atene Roma,,,,1974
11637078,Atene Roma,,,,1966
27652416,Renaiss Q,10.1086/665836,https://www.cambridge.org/core/journals/renaissance-quarterly/article/abs/rediscovered-friendship-in-the-republic-of-letters-the-unpublished-correspondence-of-arcangela-tarabotti-and-ismael-boulliau/A7E35C65E4F53BA590D1323FECDB1BA1,Cambridge University Press,2012
27652416,Renaiss Q,10.1086/665836,https://www.cambridge.org/core/journals/renaissance-quarterly/article/abs/rediscovered-friendship-in-the-republic-of-letters-the-unpublished-correspondence-of-arcangela-tarabotti-and-ismael-boulliau/A7E35C65E4F53BA590D1323FECDB1BA1,Cambridge University Press,2012
11615594,Renaiss Q,,,,1976
35281328,Am Hist Rev,10.1093/ahr/rhab536,https://academic.oup.com/crawlprevention/governor?content=%2fahr%2farticle%2f126%2f4%2f1512%2f6497490,Oxford University Press,2021
35281328,Am Hist Rev,10.1093/ahr/rhab536,https://academic.oup.com/crawlprevention/governor?content=%2fahr%2farticle%2f126%2f4%2f1512%2f6497490,Oxford University Press,2021
21155371,Am Hist Rev,10.1086/ahr.111.1.76,https://academic.oup.com/crawlprevention/governor?content=%2fahr%2farticle%2f111%2f1%2f76%2f135343,Oxford University Press,2006
27071296,Organon,,,,2015
27071296,Organon,,,,2015
20503570,Organon,,,,2007
11618095,Sci Soc,,,,1986
11618095,Sci Soc,,,,1986
11618094,Sci Soc,,,,1984
20648984,Arctic Anthropol,10.1353/arc.0.0036,https://aa.uwpress.org/content/47/1/57,Unknown,2010
20648984,Arctic Anthropol,10.1353/arc.0.0036,https://aa.uwpress.org/content/47/1/57,Unknown,2010
21847844,Arctic Anthropol,10.1353/arc.2011.0030,https://aa.uwpress.org/content/43/1/40,Unknown,2006
35795871,Ann Demogr Hist (Paris),10.3917/adh.138.0143,https://www.cairn.info/revue-annales-de-demographie-historique-2019-2-page-143.htm?ref=doi,Unknown,2019
35795871,Ann Demogr Hist (Paris),10.3917/adh.138.0143,https://www.cairn.info/revue-annales-de-demographie-historique-2019-2-page-143.htm?ref=doi,Unknown,2019
11623379,Ann Demogr Hist (Paris),,,,1993
11619839,Comput Hum,10.1023/a:1000494006349,https://link.springer.com/article/10.1023/A:1000494006349,Springer,1997
11619839,Comput Hum,10.1023/a:1000494006349,https://link.springer.com/article/10.1023/A:1000494006349,Springer,1997
11634815,Comput Hum,10.1007/BF02404182,https://link.springer.com/article/10.1007/BF02404182,Springer,1981
11633086,Ruperto Carola,,,,1978
11633086,Ruperto Carola,,,,1978
11635898,Ruperto Carola,,,,1976
11615423,Stud Renaissance,,,,1974
11615423,Stud Renaissance,,,,1974
19591253,Stud Renaissance,,,,1967
11616097,Stud Bibliogr,,,,1988
11616097,Stud Bibliogr,,,,1988
11616097,Stud Bibliogr,,,,1988
17219714,Scriptorium,10.3406/scrip.1997.1811,https://www.persee.fr/doc/scrip_0036-9772_1997_num_51_2_1811,Unknown,1997
17219714,Scriptorium,10.3406/scrip.1997.1811,https://www.persee.fr/doc/scrip_0036-9772_1997_num_51_2_1811,Unknown,1997
11615948,Scriptorium,10.3406/scrip.1982.1250,https://www.persee.fr/doc/scrip_0036-9772_1982_num_36_1_1250,Unknown,1982
14674440,Huntia,,,,2000
14674440,Huntia,,,,2000
14674440,Huntia,,,,2000
29489123,Acta Hist Leopoldina,,,,2016
29489123,Acta Hist Leopoldina,,,,2016
20617615,Acta Hist Leopoldina,,,,2008
25684828,Popul Rev,10.1353/prv.2014.0006,,Unknown,2014
25684828,Popul Rev,10.1353/prv.2014.0006,,Unknown,2014
11613863,Popul Rev,,,,1988
36148408,Osiris,10.1086/719222,https://www.journals.uchicago.edu/doi/10.1086/719222,Unknown,2022
36148408,Osiris,10.1086/719222,https://www.journals.uchicago.edu/doi/10.1086/719222,Unknown,2022
20503761,Osiris,10.1086/649416,https://www.journals.uchicago.edu/doi/10.1086/649416,Unknown,2005
11636719,Riv Ist Vaccinogeno Consorzi Prov Antituberc,,,,1971
11636719,Riv Ist Vaccinogeno Consorzi Prov Antituberc,,,,1971
11636719,Riv Ist Vaccinogeno Consorzi Prov Antituberc,,,,1971
11615835,Classical Rev,,,,1980
11615835,Classical Rev,,,,1980
11615834,Classical Rev,,,,1980
11631541,Anu Indig,,,,1970
11631541,Anu Indig,,,,1970
11631541,Anu Indig,,,,1970
19235284,Bibl Humanisme Renaiss,,,,2008
19235284,Bibl Humanisme Renaiss,,,,2008
15773045,Bibl Humanisme Renaiss,,,,2002
11613670,Items,,,,1981
11613670,Items,,,,1981
11613670,Items,,,,1981
11615845,Stud Philol,,,,1980
11615845,Stud Philol,,,,1980
11615838,Stud Philol,,,,1972
11640631,Wehrmed Monatsschr,,,,1994
11640631,Wehrmed Monatsschr,,,,1994
11625977,Wehrmed Monatsschr,,,,1973
38899537,Ecology,10.1002/ecy.4360,https://esajournals.onlinelibrary.wiley.com/doi/10.1002/ecy.4360,Wiley,2024
38899537,Ecology,10.1002/ecy.4360,https://esajournals.onlinelibrary.wiley.com/doi/10.1002/ecy.4360,Wiley,2024
38563488,Ecology,10.1002/ecy.4277,https://esajournals.onlinelibrary.wiley.com/doi/10.1002/ecy.4277,Wiley,2024
35928988,Speculum,10.1086/715838,https://www.journals.uchicago.edu/doi/10.1086/715838,Unknown,2021
35928988,Speculum,10.1086/715838,https://www.journals.uchicago.edu/doi/10.1086/715838,Unknown,2021
19739319,Speculum,10.1017/s0038713400018042,https://www.journals.uchicago.edu/doi/10.1017/S0038713400018042,Unknown,2009
11640720,Cuad Hist Salud Publica,,,,1992
11640720,Cuad Hist Salud Publica,,,,1992
11633917,Cuad Hist Salud Publica,,,,1973
17494243,Notes Queries,10.1093/notesj/gjl003,https://academic.oup.com/crawlprevention/governor?content=%2fnq%2farticle-lookup%2fdoi%2f10.1093%2fnotesj%2fgjl003,Oxford University Press,2006
17494243,Notes Queries,10.1093/notesj/gjl003,https://academic.oup.com/crawlprevention/governor?content=%2fnq%2farticle-lookup%2fdoi%2f10.1093%2fnotesj%2fgjl003,Oxford University Press,2006
11620553,Notes Queries,,,,1998
11637098,Dusseld Arb Gesch Med,,,,1998
11637098,Dusseld Arb Gesch Med,,,,1998
11636950,Dusseld Arb Gesch Med,,,,1998
11636645,Veroff Int Ges Gesch Pharm,,,,1997
11636645,Veroff Int Ges Gesch Pharm,,,,1997
11636644,Veroff Int Ges Gesch Pharm,,,,1997
11633657,Zentralbl Haut Und Geschlechtskr,,,,1990
11633657,Zentralbl Haut Und Geschlechtskr,,,,1990
11633657,Zentralbl Haut Und Geschlechtskr,,,,1990
11640065,Commun Hist Artis Med Suppl,,,,1993
11640065,Commun Hist Artis Med Suppl,,,,1993
11637644,Commun Hist Artis Med Suppl,,,,1984
18646378,Hist Stud Phys Biol Sci,10.1525/hsps.2001.31.2.249,https://online.ucpress.edu/hsns/article/31/2/249/47889/Spirit-air-and-quicksilver-The-search-for-the-real,Unknown,2001
18646378,Hist Stud Phys Biol Sci,10.1525/hsps.2001.31.2.249,https://online.ucpress.edu/hsns/article/31/2/249/47889/Spirit-air-and-quicksilver-The-search-for-the-real,Unknown,2001
11622203,Hist Stud Phys Biol Sci,,,,1987
38470377,Disabil Soc,10.1080/09687599.2022.2087489,https://www.tandfonline.com/doi/full/10.1080/09687599.2022.2087489,Taylor & Francis,2024
38470377,Disabil Soc,10.1080/09687599.2022.2087489,https://www.tandfonline.com/doi/full/10.1080/09687599.2022.2087489,Taylor & Francis,2024
34703084,Disabil Soc,10.1080/09687599.2021.1919503,https://www.tandfonline.com/doi/full/10.1080/09687599.2021.1919503,Taylor & Francis,2021
18548952,Sven Med Tidskr,,,,2007
18548952,Sven Med Tidskr,,,,2007
11625667,Sven Med Tidskr,,,,1999
11614089,Newsl Med Sci Hist Soc,,,,1985
11614089,Newsl Med Sci Hist Soc,,,,1985
11614089,Newsl Med Sci Hist Soc,,,,1985
11639564,Fugitive Leaves Hist Collect,,,,1994
11639564,Fugitive Leaves Hist Collect,,,,1994
11611937,Fugitive Leaves Hist Collect,,,,1986
38846152,Soc Hist Med,10.1093/shm/hkae014,https://academic.oup.com/crawlprevention/governor?content=%2fshm%2farticle%2f36%2f4%2f585%2f7639613,Oxford University Press,2023
38846152,Soc Hist Med,10.1093/shm/hkae014,https://academic.oup.com/crawlprevention/governor?content=%2fshm%2farticle%2f36%2f4%2f585%2f7639613,Oxford University Press,2023
30089938,Soc Hist Med,10.1093/shm/hkx016,https://academic.oup.com/crawlprevention/governor?content=%2fshm%2farticle%2f31%2f3%2f577%2f3798556,Oxford University Press,2018
11833589,Proc R Coll Physicians Edinb,,,,2001
11833589,Proc R Coll Physicians Edinb,,,,2001
11615394,Proc R Coll Physicians Edinb,,,,1996
11615215,Y,,,,1985
11615215,Y,,,,1985
11615212,Y,,,,1985
11640029,Guthrie J Donald Guthrie Found Med Res,,,,1995
11640029,Guthrie J Donald Guthrie Found Med Res,,,,1995
21188291,Guthrie J Donald Guthrie Found Med Res,,,,1993
12899176,Rep Proc Scott Soc Hist Med,,,,1996
12899176,Rep Proc Scott Soc Hist Med,,,,1996
11618407,Rep Proc Scott Soc Hist Med,,,,1990
11634311,Arsberet Kobenhavns Univ Med Hist Mus,,,,1971
11634311,Arsberet Kobenhavns Univ Med Hist Mus,,,,1971
11634311,Arsberet Kobenhavns Univ Med Hist Mus,,,,1971
11636461,Suddtsch Optikerztg,,,,1981
11636461,Suddtsch Optikerztg,,,,1981
11636461,Suddtsch Optikerztg,,,,1981
11675771,Izv Akad Gruz Ssr. Ser Biol,,,,1985
11675771,Izv Akad Gruz Ssr. Ser Biol,,,,1985
11675771,Izv Akad Gruz Ssr. Ser Biol,,,,1985
11634202,Bol Soc Mex Hist Filos Med,,,,1991
11634202,Bol Soc Mex Hist Filos Med,,,,1991
11637455,Bol Soc Mex Hist Filos Med,,,,1986
18939347,Rev Hist Sci Paris,10.3406/rhs.2000.2098,https://www.persee.fr/doc/rhs_0151-4105_2000_num_53_3_2098,Unknown,2000
18939347,Rev Hist Sci Paris,10.3406/rhs.2000.2098,https://www.persee.fr/doc/rhs_0151-4105_2000_num_53_3_2098,Unknown,2000
19119521,Rev Hist Sci Paris,,,,2000
11636094,Tech Eau Assainissement,,,,1971
11636094,Tech Eau Assainissement,,,,1971
11636094,Tech Eau Assainissement,,,,1971
11613628,Bull Inst Hist Med Hyderabad,,,,1973
11613628,Bull Inst Hist Med Hyderabad,,,,1973
11609243,Bull Inst Hist Med Hyderabad,,,,1972
36713052,Public Adm,10.1111/padm.12889,https://onlinelibrary.wiley.com/doi/10.1111/padm.12889,Wiley,2022
36713052,Public Adm,10.1111/padm.12889,https://onlinelibrary.wiley.com/doi/10.1111/padm.12889,Wiley,2022
35601345,Public Adm,10.1111/padm.12843,https://onlinelibrary.wiley.com/doi/10.1111/padm.12843,Wiley,2022
11634299,Mitt Osterr Sanitatsverwalt,,,,1972
11634299,Mitt Osterr Sanitatsverwalt,,,,1972
11634299,Mitt Osterr Sanitatsverwalt,,,,1972
11634345,Osterr Apoth Ztg,,,,1978
11634345,Osterr Apoth Ztg,,,,1978
18131244,Osterr Apoth Ztg,,,,1949
11625866,Waage,,,,1995
11625866,Waage,,,,1995
11633541,Waage,,,,1980
32255899,Soc Sci Inf (Paris),10.1177/0539018419895456,https://journals.sagepub.com/doi/10.1177/0539018419895456,SAGE Publications,2020
32255899,Soc Sci Inf (Paris),10.1177/0539018419895456,https://journals.sagepub.com/doi/10.1177/0539018419895456,SAGE Publications,2020
11615150,Soc Sci Inf (Paris),,,,1983
12206158,Contrib Med Stud,,,,2002
12206158,Contrib Med Stud,,,,2002
11639471,Contrib Med Stud,,,,1993
12430552,Baker Cederberg Noteb,,,,1999
12430552,Baker Cederberg Noteb,,,,1999
11623570,Baker Cederberg Noteb,,,,1998
11617708,Migr Today,,,,1984
11617708,Migr Today,,,,1984
11617708,Migr Today,,,,1984
11663115,J Thought,,,,1978
11663115,J Thought,,,,1978
11617518,J Thought,,,,1974
38603427,J Eur Stud,10.1177/00472441221141957,https://journals.sagepub.com/doi/10.1177/00472441221141957,SAGE Publications,2023
38603427,J Eur Stud,10.1177/00472441221141957,https://journals.sagepub.com/doi/10.1177/00472441221141957,SAGE Publications,2023
11614746,J Eur Stud,10.1177/004724418101104202,https://journals.sagepub.com/doi/10.1177/004724418101104202,SAGE Publications,1981
38708652,J Hist Ideas,10.1353/jhi.2024.a926153,https://muse.jhu.edu/article/926153,Unknown,2024
38708652,J Hist Ideas,10.1353/jhi.2024.a926153,https://muse.jhu.edu/article/926153,Unknown,2024
38588302,J Hist Ideas,10.1353/jhi.2023.a909535,https://muse.jhu.edu/article/909535,Unknown,2023
11618989,Snakeroot Extr,,,,1993
11618989,Snakeroot Extr,,,,1993
11635968,Snakeroot Extr,,,,1985
37362024,Hum Ecol Interdiscip J,10.1007/s10745-023-00406-z,https://link.springer.com/article/10.1007/s10745-023-00406-z,Springer,2023
37362024,Hum Ecol Interdiscip J,10.1007/s10745-023-00406-z,https://link.springer.com/article/10.1007/s10745-023-00406-z,Springer,2023
37122818,Hum Ecol Interdiscip J,10.1007/s10745-023-00402-3,https://link.springer.com/article/10.1007/s10745-023-00402-3,Springer,2023
11614466,Factotum,,,,1981
11614466,Factotum,,,,1981
11614466,Factotum,,,,1981
18543448,Biogr Mem Natl Acad Sci,,,,2006
18543448,Biogr Mem Natl Acad Sci,,,,2006
12661554,Biogr Mem Natl Acad Sci,,,,2002
38910435,J Child Sex Abus,10.1080/10538712.2024.2369285,https://www.tandfonline.com/doi/full/10.1080/10538712.2024.2369285,Taylor & Francis,2024
38910435,J Child Sex Abus,10.1080/10538712.2024.2369285,https://www.tandfonline.com/doi/full/10.1080/10538712.2024.2369285,Taylor & Francis,2024
37159566,J Child Sex Abus,10.1080/10538712.2023.2211578,https://www.tandfonline.com/doi/full/10.1080/10538712.2023.2211578,Taylor & Francis,2023
11638976,Pharmaziehist Bibliogr,,,,1999
11638976,Pharmaziehist Bibliogr,,,,1999
11630264,Pharmaziehist Bibliogr,,,,1996
11630791,Outlook Mag,,,,1982
11630791,Outlook Mag,,,,1982
11630790,Outlook Mag,,,,1982
34191876,J Asian Stud,10.1017/S0021911820002338,https://read.dukeupress.edu/journal-of-asian-studies/article-abstract/79/3/621/321458/Afterword-Lives-Interrupted-Trends-Continued?redirectedFrom=fulltext,Unknown,2020
34191876,J Asian Stud,10.1017/S0021911820002338,https://read.dukeupress.edu/journal-of-asian-studies/article-abstract/79/3/621/321458/Afterword-Lives-Interrupted-Trends-Continued?redirectedFrom=fulltext,Unknown,2020
11623453,J Asian Stud,,,,1987
11640831,Bol Soc Esp Hidrol Med,,,,1992
11640831,Bol Soc Esp Hidrol Med,,,,1992
11640831,Bol Soc Esp Hidrol Med,,,,1992
38752430,Ann Sci,10.1080/00033790.2024.2351511,https://www.tandfonline.com/doi/full/10.1080/00033790.2024.2351511,Taylor & Francis,2024
38752430,Ann Sci,10.1080/00033790.2024.2351511,https://www.tandfonline.com/doi/full/10.1080/00033790.2024.2351511,Taylor & Francis,2024
38587865,Ann Sci,10.1080/00033790.2024.2337136,https://www.tandfonline.com/doi/full/10.1080/00033790.2024.2337136,Taylor & Francis,2024
18386420,Hist Rec Aust Sci,10.1071/hr0001320161,https://www.publish.csiro.au/hr/HR0001320161,Unknown,2000
18386420,Hist Rec Aust Sci,10.1071/hr0001320161,https://www.publish.csiro.au/hr/HR0001320161,Unknown,2000
11617106,Hist Rec Aust Sci,10.1071/hr9850620115,https://www.publish.csiro.au/hr/HR9850620115,Unknown,1985
11617715,Mil Rev,,,,1985
11617715,Mil Rev,,,,1985
18908527,Mil Rev,,,,1948
11635456,Newsl Can Soc Hist Med,10.3138/cbmh.1979.9,https://utpjournals.press/doi/10.3138/cbmh.1979.9,Unknown,1979
11635456,Newsl Can Soc Hist Med,10.3138/cbmh.1979.9,https://utpjournals.press/doi/10.3138/cbmh.1979.9,Unknown,1979
11635456,Newsl Can Soc Hist Med,10.3138/cbmh.1979.9,https://utpjournals.press/doi/10.3138/cbmh.1979.9,Unknown,1979
11636027,Stor Contemp,,,,1985
11636027,Stor Contemp,,,,1985
11636027,Stor Contemp,,,,1985
36059856,Sociol Inq,10.1111/soin.12456,https://onlinelibrary.wiley.com/doi/10.1111/soin.12456,Wiley,2022
36059856,Sociol Inq,10.1111/soin.12456,https://onlinelibrary.wiley.com/doi/10.1111/soin.12456,Wiley,2022
11638783,Sociol Inq,10.1111/j.1475-682x.1981.tb00846.x,https://onlinelibrary.wiley.com/doi/10.1111/j.1475-682X.1981.tb00846.x,Wiley,1981
15382349,Scalpel Tongs,,,,2004
15382349,Scalpel Tongs,,,,2004
11624063,Scalpel Tongs,,,,1999
38842869,Hist Psychol,10.1037/hop0000260,https://psycnet.apa.org:443/doiLanding?doi=10.1037/hop0000260&,Unknown,2024
38842869,Hist Psychol,10.1037/hop0000260,https://psycnet.apa.org:443/doiLanding?doi=10.1037/hop0000260&,Unknown,2024
38206845,Hist Psychol,10.1037/hop0000252,https://psycnet.apa.org:443/doiLanding?doi=10.1037/hop0000252&,Unknown,2024
11639829,Stud Profertility Ser,,,,1995
11639829,Stud Profertility Ser,,,,1995
11639829,Stud Profertility Ser,,,,1995
12785338,Slown Biogr Pol Med XX Wieku,,,,2002
12785338,Slown Biogr Pol Med XX Wieku,,,,2002
11636480,Slown Biogr Pol Med XX Wieku,,,,1991
22355829,Vic Stud,10.2979/victorianstudies.53.4.689,https://muse.jhu.edu/article/458229,Unknown,2011
22355829,Vic Stud,10.2979/victorianstudies.53.4.689,https://muse.jhu.edu/article/458229,Unknown,2011
19618526,Vic Stud,10.2979/vic.2008.51.1.37,https://muse.jhu.edu/article/260504,Unknown,2008
11625147,Bibliogr Int Demogr Hist,,,,1994
11625147,Bibliogr Int Demogr Hist,,,,1994
11625147,Bibliogr Int Demogr Hist,,,,1994
11639133,Quad Int Stor Med Sanita,,,,1998
11639133,Quad Int Stor Med Sanita,,,,1998
11630300,Quad Int Stor Med Sanita,,,,1995
11625420,Hippokrates (Helsinki),,,,1998
11625420,Hippokrates (Helsinki),,,,1998
11638575,Hippokrates (Helsinki),,,,1993
11636311,Z Phytother,,,,1982
11636311,Z Phytother,,,,1982
11636311,Z Phytother,,,,1982
28603954,Stud Anc Med,,,,2017
28603954,Stud Anc Med,,,,2017
26731802,Stud Anc Med,,,,2016
11638879,Bibliogr Ital Stor Sci,,,,1996
11638879,Bibliogr Ital Stor Sci,,,,1996
11638879,Bibliogr Ital Stor Sci,,,,1996
11623323,Sydsven Medicinhist Sallsk Arsskr Suppl,,,,1992
11623323,Sydsven Medicinhist Sallsk Arsskr Suppl,,,,1992
11616432,Sydsven Medicinhist Sallsk Arsskr Suppl,,,,1992
11631232,Jahrb Inst Gesch Med Robert Bosch Stift,,,,1990
11631232,Jahrb Inst Gesch Med Robert Bosch Stift,,,,1990
11631173,Jahrb Inst Gesch Med Robert Bosch Stift,,,,1989
19230311,Veroff Schweiz Ges Gesch Pharm,,,,2008
19230311,Veroff Schweiz Ges Gesch Pharm,,,,2008
11612105,Veroff Schweiz Ges Gesch Pharm,,,,1987
11630595,An Ilustre Col Of Med,,,,1976
11630595,An Ilustre Col Of Med,,,,1976
11630594,An Ilustre Col Of Med,,,,1976
25684835,Arch Nat Hist,10.3366/anh.2013.0155,https://www.euppublishing.com/doi/10.3366/anh.2013.0155,Unknown,2013
25684835,Arch Nat Hist,10.3366/anh.2013.0155,https://www.euppublishing.com/doi/10.3366/anh.2013.0155,Unknown,2013
11622401,Arch Nat Hist,10.3366/anh.1987.14.1.3,https://www.euppublishing.com/doi/10.3366/anh.1987.14.1.3,Unknown,1987
11613672,Hstc Bull,10.7202/800166ar,https://www.erudit.org/fr/revues/hstc/1983-v7-n2-hstc3214/800166ar/,Unknown,1983
11613672,Hstc Bull,10.7202/800166ar,https://www.erudit.org/fr/revues/hstc/1983-v7-n2-hstc3214/800166ar/,Unknown,1983
11675759,Hstc Bull,,,,1980
11609153,Int J Womens Stud,,,,1981
11609153,Int J Womens Stud,,,,1981
11609153,Int J Womens Stud,,,,1981
11630458,Saarl Arztebl,,,,1972
11630458,Saarl Arztebl,,,,1972
11630458,Saarl Arztebl,,,,1972
11634278,Koln Med Beitr,,,,1995
11634278,Koln Med Beitr,,,,1995
11640638,Koln Med Beitr,,,,1992
11611372,Stud Hist Biol,,,,1984
11611372,Stud Hist Biol,,,,1984
11615829,Stud Hist Biol,,,,1980
11630419,Soap Perfum Cosmet (Lond),,,,1969
11630419,Soap Perfum Cosmet (Lond),,,,1969
11630419,Soap Perfum Cosmet (Lond),,,,1969
35974900,Notes Rec R Soc Lond,10.1098/rsnr.2022.0022,https://royalsocietypublishing.org/doi/10.1098/rsnr.2022.0022,Unknown,2022
35974900,Notes Rec R Soc Lond,10.1098/rsnr.2022.0022,https://royalsocietypublishing.org/doi/10.1098/rsnr.2022.0022,Unknown,2022
31390415,Notes Rec R Soc Lond,10.1098/rsnr.2016.0011,https://royalsocietypublishing.org/doi/10.1098/rsnr.2016.0011,Unknown,2017
11638985,Salzburger Beitr Paracelsusforsch,,,,1998
11638985,Salzburger Beitr Paracelsusforsch,,,,1998
11634070,Salzburger Beitr Paracelsusforsch,,,,1981
11636727,Monit Pharm Lab,,,,1983
11636727,Monit Pharm Lab,,,,1983
11634419,Monit Pharm Lab,,,,1983
11630166,Nachrichtenbl Dtsch Ges Gesch Med Naturwiss Tech,,,,1993
11630166,Nachrichtenbl Dtsch Ges Gesch Med Naturwiss Tech,,,,1993
11634010,Nachrichtenbl Dtsch Ges Gesch Med Naturwiss Tech,,,,1983
11636031,Strada Maestra,,,,1976
11636031,Strada Maestra,,,,1976
11636031,Strada Maestra,,,,1976
11627747,Arch Int Claude Bernard,,,,1976
11627747,Arch Int Claude Bernard,,,,1976
11636698,Arch Int Claude Bernard,,,,1974
11614655,Int Libr Rev,10.1016/0020-7837(85)90017-2,https://www.tandfonline.com/doi/full/10.1016/0020-7837%2885%2990017-2,Taylor & Francis,1985
11614655,Int Libr Rev,10.1016/0020-7837(85)90017-2,https://www.tandfonline.com/doi/full/10.1016/0020-7837%2885%2990017-2,Taylor & Francis,1985
11614654,Int Libr Rev,10.1016/0020-7837(83)90066-3,https://www.tandfonline.com/doi/full/10.1016/0020-7837%2883%2990066-3,Taylor & Francis,1983
11630344,Pagine Stor Med Collana,,,,1969
11630344,Pagine Stor Med Collana,,,,1969
11630342,Pagine Stor Med Collana,,,,1969
30549783,Nihon Ishigaku Zasshi,,,,2017
30549783,Nihon Ishigaku Zasshi,,,,2017
22397108,Nihon Ishigaku Zasshi,,,,2011
11634427,Atti Accad Sci Ist Bologna Classe Sci Fis Rend,,,,1981
11634427,Atti Accad Sci Ist Bologna Classe Sci Fis Rend,,,,1981
11636484,Atti Accad Sci Ist Bologna Classe Sci Fis Rend,,,,1978
29737664,Dan Medicinhist Arbog,,,,2016
29737664,Dan Medicinhist Arbog,,,,2016
20509455,Dan Medicinhist Arbog,,,,2009
25345271,Bull Anesth Hist,,,,2014
25345271,Bull Anesth Hist,,,,2014
17494240,Bull Anesth Hist,10.1016/s1522-8649(05)50030-1,https://linkinghub.elsevier.com/retrieve/pii/S1522864905500301,ScienceDirect,2005
11633630,Z Entwicklungspsychol Padagog Psychol,,,,1982
11633630,Z Entwicklungspsychol Padagog Psychol,,,,1982
11633630,Z Entwicklungspsychol Padagog Psychol,,,,1982
11615073,Parameters,,,,1982
11615073,Parameters,,,,1982
11615073,Parameters,,,,1982
32994643,Arch Hist Exact Sci,10.1007/s00407-020-00261-0,https://link.springer.com/article/10.1007/s00407-020-00261-0,Springer,2021
32994643,Arch Hist Exact Sci,10.1007/s00407-020-00261-0,https://link.springer.com/article/10.1007/s00407-020-00261-0,Springer,2021
28912607,Arch Hist Exact Sci,10.1007/s00407-017-0193-8,https://link.springer.com/article/10.1007/s00407-017-0193-8,Springer,2017
11631516,Ann Hist Comput,10.1109/mahc.1981.10028,https://ieeexplore.ieee.org/document/4640686/,IEEE,1981
11631516,Ann Hist Comput,10.1109/mahc.1981.10028,https://ieeexplore.ieee.org/document/4640686/,IEEE,1981
11631516,Ann Hist Comput,10.1109/mahc.1981.10028,https://ieeexplore.ieee.org/document/4640686/,IEEE,1981
36714168,J Dev Stud,10.1080/00220388.2022.2120805,https://www.tandfonline.com/doi/full/10.1080/00220388.2022.2120805,Taylor & Francis,2023
36714168,J Dev Stud,10.1080/00220388.2022.2120805,https://www.tandfonline.com/doi/full/10.1080/00220388.2022.2120805,Taylor & Francis,2023
21328807,J Dev Stud,10.1080/00220381003706494,https://www.tandfonline.com/doi/abs/10.1080/00220381003706494,Taylor & Francis,2010
11662807,S Afr Nursing J,,,,1977
11662807,S Afr Nursing J,,,,1977
18915163,S Afr Nursing J,,,,1948
22372009,Asclepio,10.3989/asclepio.2011.v63.i2.509,https://asclepio.revistas.csic.es/index.php/asclepio/article/view/509/,Unknown,2011
22372009,Asclepio,10.3989/asclepio.2011.v63.i2.509,https://asclepio.revistas.csic.es/index.php/asclepio/article/view/509/,Unknown,2011
18574893,Asclepio,,,,2001
17100017,Plains Anthropol,10.1080/2052546.2000.11932028,https://www.tandfonline.com/doi/full/10.1080/2052546.2000.11932028,Taylor & Francis,2000
17100017,Plains Anthropol,10.1080/2052546.2000.11932028,https://www.tandfonline.com/doi/full/10.1080/2052546.2000.11932028,Taylor & Francis,2000
11630894,Plains Anthropol,,,,1982
29611675,Rev Hist Pharm (Paris),,,,2017
29611675,Rev Hist Pharm (Paris),,,,2017
29611684,Rev Hist Pharm (Paris),,,,2016
30393390,Geogr Rev,10.1111/gere.12291,https://www.tandfonline.com/doi/full/10.1111/gere.12291,Taylor & Francis,2018
30393390,Geogr Rev,10.1111/gere.12291,https://www.tandfonline.com/doi/full/10.1111/gere.12291,Taylor & Francis,2018
20662190,Geogr Rev,,,,1999
38908514,Cir Esp,10.1016/j.cireng.2024.05.015,https://linkinghub.elsevier.com/retrieve/pii/S2173507724001509,ScienceDirect,2024
38908514,Cir Esp,10.1016/j.cireng.2024.05.015,https://linkinghub.elsevier.com/retrieve/pii/S2173507724001509,ScienceDirect,2024
38604566,Cir Esp,10.1016/j.cireng.2024.02.011,https://linkinghub.elsevier.com/retrieve/pii/S2173507724000875,ScienceDirect,2024
11639684,Chic Med,,,,1995
11639684,Chic Med,,,,1995
14155152,Chic Med,,,,1964
11617987,Q J Libr Cong,,,,1978
11617987,Q J Libr Cong,,,,1978
11617987,Q J Libr Cong,,,,1978
38906075,Stud Hist Philos Sci,10.1016/j.shpsa.2024.06.001,https://linkinghub.elsevier.com/retrieve/pii/S0039368124000980,ScienceDirect,2024
38906075,Stud Hist Philos Sci,10.1016/j.shpsa.2024.06.001,https://linkinghub.elsevier.com/retrieve/pii/S0039368124000980,ScienceDirect,2024
38759413,Stud Hist Philos Sci,10.1016/j.shpsa.2024.03.005,https://linkinghub.elsevier.com/retrieve/pii/S0039368124000530,ScienceDirect,2024
18800428,Stud Hist Med Sci,,,,2001
18800428,Stud Hist Med Sci,,,,2001
17240567,Stud Hist Med Sci,,,,2002
11639155,Bull Soc Fr Hist Hop,,,,2000
11639155,Bull Soc Fr Hist Hop,,,,2000
11636946,Bull Soc Fr Hist Hop,,,,1997
18572486,Bus Hist Rev,,,,2001
18572486,Bus Hist Rev,,,,2001
19459262,Bus Hist Rev,,,,1999
11634718,Bull Res Humanit,,,,1979
11634718,Bull Res Humanit,,,,1979
11634717,Bull Res Humanit,,,,1978
11620213,J Libr Hist,,,,1985
11620213,J Libr Hist,,,,1985
11620213,J Libr Hist,,,,1985
11632303,J Libr,10.1177/096100068001200203,https://journals.sagepub.com/doi/10.1177/096100068001200203,SAGE Publications,1980
11632303,J Libr,10.1177/096100068001200203,https://journals.sagepub.com/doi/10.1177/096100068001200203,SAGE Publications,1980
11632303,J Libr,10.1177/096100068001200203,https://journals.sagepub.com/doi/10.1177/096100068001200203,SAGE Publications,1980
11632842,Relig Life,,,,1980
11632842,Relig Life,,,,1980
11664588,Relig Life,,,,1976
11639128,Cuad Hisp Hist Med Cienc,,,,1993
11639128,Cuad Hisp Hist Med Cienc,,,,1993
11639128,Cuad Hisp Hist Med Cienc,,,,1993
30717511,Yeni Tip Tarihi Arastirmalari,,,,2015
30717511,Yeni Tip Tarihi Arastirmalari,,,,2015
30717509,Yeni Tip Tarihi Arastirmalari,,,,2015
11631343,Adiyat Halab,,,,1975
11631343,Adiyat Halab,,,,1975
11631343,Adiyat Halab,,,,1975
20503545,Etud Balk,,,,1999
20503545,Etud Balk,,,,1999
11631999,Etud Balk,,,,1973
11634863,Demogr Econ,,,,1984
11634863,Demogr Econ,,,,1984
11634863,Demogr Econ,,,,1984
11630078,Arch Gesch Naturwiss,,,,1990
11630078,Arch Gesch Naturwiss,,,,1990
11630078,Arch Gesch Naturwiss,,,,1990
11621772,Annotation,,,,1988
11621772,Annotation,,,,1988
11621772,Annotation,,,,1988
22400200,Wurzbg Medizinhist Mitt,,,,2011
22400200,Wurzbg Medizinhist Mitt,,,,2011
19230370,Wurzbg Medizinhist Mitt,,,,2008
36843960,Food Foodways,10.1080/07409710.2023.2172795,https://www.tandfonline.com/doi/full/10.1080/07409710.2023.2172795,Taylor & Francis,2023
36843960,Food Foodways,10.1080/07409710.2023.2172795,https://www.tandfonline.com/doi/full/10.1080/07409710.2023.2172795,Taylor & Francis,2023
11614486,Food Foodways,10.1080/07409710.1987.9961898,https://www.tandfonline.com/doi/abs/10.1080/07409710.1987.9961898,Taylor & Francis,1987
11613914,Hist Nurs Bull,,,,1990
11613914,Hist Nurs Bull,,,,1990
11613913,Hist Nurs Bull,,,,1990
36339654,Allergo J,10.1007/s15007-022-5617-3,https://www.springermedizin.de/oesterreichische-spezialisierung-in-allergologie-nimmt-fahrt-auf/23658654?fulltextView=true&doi=10.1007/s15007-022-5617-3,Springer,2022
36339654,Allergo J,10.1007/s15007-022-5617-3,https://www.springermedizin.de/oesterreichische-spezialisierung-in-allergologie-nimmt-fahrt-auf/23658654?fulltextView=true&doi=10.1007/s15007-022-5617-3,Springer,2022
34393382,Allergo J,10.1007/s15007-021-4871-0,https://www.springermedizin.de/covid-19-impfung/erfreuliches-in-covid-19-zeiten-allergo-journal-im-jcr-gelistet/19551980?fulltextView=true&doi=10.1007/s15007-021-4871-0,Springer,2021
19227797,Pharm Hist Aust,,,,2008
19227797,Pharm Hist Aust,,,,2008
19227797,Pharm Hist Aust,,,,2008
11621771,Bull Islam Med,,,,1989
11621771,Bull Islam Med,,,,1989
19601381,Bull Islam Med,,,,1982
11618982,Newsl Soc Welf Hist Group,,,,1996
11618982,Newsl Soc Welf Hist Group,,,,1996
11618982,Newsl Soc Welf Hist Group,,,,1996
11612498,Publ Soc Lit Sci,,,,1990
11612498,Publ Soc Lit Sci,,,,1990
11612409,Publ Soc Lit Sci,,,,1987
11635375,Mediterr Peoples,,,,1986
11635375,Mediterr Peoples,,,,1986
11635375,Mediterr Peoples,,,,1986
11634677,Bol Inst Invest Bibliogr (Mexico),,,,1970
11634677,Bol Inst Invest Bibliogr (Mexico),,,,1970
11634677,Bol Inst Invest Bibliogr (Mexico),,,,1970
11630474,Smithson Ann Flight,,,,1974
11630474,Smithson Ann Flight,,,,1974
11630474,Smithson Ann Flight,,,,1974
19756223,Harv Educ Rev,10.17763/haer.78.1.54468j6204x24157,https://meridian.allenpress.com/her/article/78/1/107/31944/The-Complex-World-of-Adolescent-Literacy-Myths,Unknown,2008
19756223,Harv Educ Rev,10.17763/haer.78.1.54468j6204x24157,https://meridian.allenpress.com/her/article/78/1/107/31944/The-Complex-World-of-Adolescent-Literacy-Myths,Unknown,2008
11614528,Harv Educ Rev,10.17763/haer.49.4.3220j044453t6509,https://meridian.allenpress.com/her/article/49/4/447/31103/The-Rediscovery-of-the-Need-for-a-Feminist-Medical,Unknown,1979
11620518,Agapit,,,,1997
11620518,Agapit,,,,1997
11620506,Agapit,,,,1997
11640071,Actionaid Disabil News,,,,1994
11640071,Actionaid Disabil News,,,,1994
11640071,Actionaid Disabil News,,,,1994
11636479,Fonti Stor Sanita,,,,1993
11636479,Fonti Stor Sanita,,,,1993
11636475,Fonti Stor Sanita,,,,1993
19244685,Passau Schr Psychologiegesch,,,,2005
19244685,Passau Schr Psychologiegesch,,,,2005
11639087,Passau Schr Psychologiegesch,,,,1998
27416651,Public Hist,10.1525/tph.2016.38.2.10,https://online.ucpress.edu/tph/article/38/2/10/90062/REPORT-FROM-THE-FIELDHistory-Matters-What-Happens,Unknown,2016
27416651,Public Hist,10.1525/tph.2016.38.2.10,https://online.ucpress.edu/tph/article/38/2/10/90062/REPORT-FROM-THE-FIELDHistory-Matters-What-Happens,Unknown,2016
20503914,Public Hist,10.1525/tph.2010.32.1.45,https://online.ucpress.edu/tph/article/32/1/45/88812/Where-Are-the-Bodies-The-Haunting-of-Indonesia,Unknown,2010
15049323,Chiropr Hist,,,,2000
15049323,Chiropr Hist,,,,2000
11619058,Chiropr Hist,,,,1996
19227684,Paleopathol Newsl,,,,2008
19227684,Paleopathol Newsl,,,,2008
15043073,Paleopathol Newsl,,,,2003
11636748,Bull Seances Acad R Sci Outre Mer,,,,1979
11636748,Bull Seances Acad R Sci Outre Mer,,,,1979
11636748,Bull Seances Acad R Sci Outre Mer,,,,1979
19235283,James Arthur Lect,,,,2007
19235283,James Arthur Lect,,,,2007
15049317,James Arthur Lect,,,,2003
11640821,Dtsch Arztebl,,,,1993
11640821,Dtsch Arztebl,,,,1993
11631929,Dtsch Arztebl,,,,1977
11633667,Bol Agrup Odontol Zona Cent Cap Fed B Aires,,,,1971
11633667,Bol Agrup Odontol Zona Cent Cap Fed B Aires,,,,1971
11633667,Bol Agrup Odontol Zona Cent Cap Fed B Aires,,,,1971
11638401,Acta Hist Med Pharm Vet (Beograd),,,,1990
11638401,Acta Hist Med Pharm Vet (Beograd),,,,1990
11626957,Acta Hist Med Pharm Vet (Beograd),,,,1972
11610084,Trans Br Soc Hist Pharm,,,,1977
11610084,Trans Br Soc Hist Pharm,,,,1977
11615421,Trans Br Soc Hist Pharm,,,,1974
11628015,Aere Perennius,,,,1979
11628015,Aere Perennius,,,,1979
11626544,Aere Perennius,,,,1972
11637363,Munstersche Beitr Gesch Theor Med,,,,1983
11637363,Munstersche Beitr Gesch Theor Med,,,,1983
11637355,Munstersche Beitr Gesch Theor Med,,,,1983
11616729,Bull J Rylands Univ Libr Manchester,10.7227/bjrl.72.1.9,https://www.manchesterhive.com/view/journals/bjrl/72/1/article-p171.xml,Unknown,1990
11616729,Bull J Rylands Univ Libr Manchester,10.7227/bjrl.72.1.9,https://www.manchesterhive.com/view/journals/bjrl/72/1/article-p171.xml,Unknown,1990
11678094,Bull J Rylands Univ Libr Manchester,,,,1971
11656007,Arch Eur Sociol,10.1017/s0003975600005889,https://www.cambridge.org/core/journals/european-journal-of-sociology-archives-europeennes-de-sociologie/article/abs/aids-as-a-moral-metaphor-an-analysis-of-the-politics-of-the-third-epidemic/C0FA65DC49E57BB92B76F203FCACC682,Cambridge University Press,1989
11656007,Arch Eur Sociol,10.1017/s0003975600005889,https://www.cambridge.org/core/journals/european-journal-of-sociology-archives-europeennes-de-sociologie/article/abs/aids-as-a-moral-metaphor-an-analysis-of-the-politics-of-the-third-epidemic/C0FA65DC49E57BB92B76F203FCACC682,Cambridge University Press,1989
11631069,Arch Eur Sociol,,,,1985
11631539,Ann Univ Ankara,,,,1974
11631539,Ann Univ Ankara,,,,1974
11631539,Ann Univ Ankara,,,,1974
11616586,Ann Wyo,,,,1989
11616586,Ann Wyo,,,,1989
11616583,Ann Wyo,,,,1983
11616587,Annu Mediaev,,,,1970
11616587,Annu Mediaev,,,,1970
11616587,Annu Mediaev,,,,1970
11634565,Antaios,,,,1970
11634565,Antaios,,,,1970
11637070,Antaios,,,,1969
11623432,Antichthon,10.1017/s0066477400003415,https://www.cambridge.org/core/journals/antichthon/article/abs/empirical-element-in-the-methods-of-early-greek-medical-writers-and-herodotus-a-shared-epistemological-response/118DE370CEA018D32A9C8EE5C7471445,Cambridge University Press,1986
11623432,Antichthon,10.1017/s0066477400003415,https://www.cambridge.org/core/journals/antichthon/article/abs/empirical-element-in-the-methods-of-early-greek-medical-writers-and-herodotus-a-shared-epistemological-response/118DE370CEA018D32A9C8EE5C7471445,Cambridge University Press,1986
11623432,Antichthon,10.1017/s0066477400003415,https://www.cambridge.org/core/journals/antichthon/article/abs/empirical-element-in-the-methods-of-early-greek-medical-writers-and-herodotus-a-shared-epistemological-response/118DE370CEA018D32A9C8EE5C7471445,Cambridge University Press,1986
11631542,Antiek,,,,1975
11631542,Antiek,,,,1975
11631543,Antiek,,,,1975
17269198,Antike Welt,,,,1980
17269198,Antike Welt,,,,1980
11631546,Antike Welt,,,,1978
11619634,Antioch Rev,,,,1980
11619634,Antioch Rev,,,,1980
11619634,Antioch Rev,,,,1980
11616589,Antiq Class,,,,1978
11616589,Antiq Class,,,,1978
11631548,Antiq Class,,,,1976
29943566,Kwart Hist Nauki Tech,,,,2016
29943566,Kwart Hist Nauki Tech,,,,2016
26455005,Kwart Hist Nauki Tech,,,,2015
11613890,J R Stat Soc Ser A,,,,1987
11613890,J R Stat Soc Ser A,,,,1987
20256635,J R Stat Soc Ser A,,,,1946
29443489,J Psychohist,,,,2017
29443489,J Psychohist,,,,2017
20503713,J Psychohist,,,,2010
17219711,Antiquity,10.1017/s0003598x00085094,https://www.cambridge.org/core/journals/antiquity/article/abs/more-underwater-finds-of-roman-medical-equipment/D89117BF394FEB22D9BFD3191035D5BF,Cambridge University Press,1997
17219711,Antiquity,10.1017/s0003598x00085094,https://www.cambridge.org/core/journals/antiquity/article/abs/more-underwater-finds-of-roman-medical-equipment/D89117BF394FEB22D9BFD3191035D5BF,Cambridge University Press,1997
11620121,Antiquity,10.1017/s0003598x00042319,https://www.cambridge.org/core/journals/antiquity/article/abs/rattus-rattus-the-introduction-of-the-black-rat-into-britain/DC79D9061B47BE2E4080A6184D516245,Cambridge University Press,1979
18680867,Anu Estud Am,,,,2001
18680867,Anu Estud Am,,,,2001
18680865,Anu Estud Am,10.3989/aeamer.2001.v58.i1.230,https://estudiosamericanos.revistas.csic.es/index.php/estudiosamericanos/article/view/230/234,Unknown,2001
11631549,Anu Estud Atl,,,,1969
11631549,Anu Estud Atl,,,,1969
11631549,Anu Estud Atl,,,,1969
21826828,Anu Estud Mediev,10.3989/aem.2011.v41.i1.335,https://estudiosmedievales.revistas.csic.es/index.php/estudiosmedievales/article/view/335/339,Unknown,2011
21826828,Anu Estud Mediev,10.3989/aem.2011.v41.i1.335,https://estudiosmedievales.revistas.csic.es/index.php/estudiosmedievales/article/view/335/339,Unknown,2011
11634542,Anu Estud Mediev,,,,1968
18557214,Anu Isnt Istor Arheol Xenopol,,,,2001
18557214,Anu Isnt Istor Arheol Xenopol,,,,2001
11634569,Anu Isnt Istor Arheol Xenopol,,,,1981
11636736,Anz Altertwiss,,,,1978
11636736,Anz Altertwiss,,,,1978
11636735,Anz Altertwiss,,,,1978
11634629,ABC Decor,,,,1987
11634629,ABC Decor,,,,1987
11634629,ABC Decor,,,,1987
19149023,A A G Bijdr,,,,1999
19149023,A A G Bijdr,,,,1999
11620107,A A G Bijdr,,,,1984
11620122,Anzhes J,,,,1982
11620122,Anzhes J,,,,1982
11620122,Anzhes J,,,,1982
11623917,AB Bookm Wkly,,,,1999
11623917,AB Bookm Wkly,,,,1999
11620471,AB Bookm Wkly,,,,1998
11633682,Arbetarrorel Arsb,,,,1975
11633682,Arbetarrorel Arsb,,,,1975
11633682,Arbetarrorel Arsb,,,,1975
18949873,Arch Kulturgesch,,,,2001
18949873,Arch Kulturgesch,,,,2001
11631584,Arch Kulturgesch,,,,1968
11634580,Arch Philos,,,,1987
11634580,Arch Philos,,,,1987
11634580,Arch Philos,,,,1987
11631332,Abr Nahain,,,,1972
11631332,Abr Nahain,,,,1972
11631332,Abr Nahain,,,,1972
11634451,Accad Bibl Ital,,,,1981
11634451,Accad Bibl Ital,,,,1981
11634451,Accad Bibl Ital,,,,1981
11631616,Archeologia,,,,1981
11631616,Archeologia,,,,1981
11631615,Archeologia,,,,1977
17899672,Archivar,,,,2002
17899672,Archivar,,,,2002
11634593,Archivar,,,,1982
11616599,Appalach J,,,,1983
11616599,Appalach J,,,,1983
11616599,Appalach J,,,,1983
17615661,Arab Stud Q,,,,2001
17615661,Arab Stud Q,,,,2001
17615661,Arab Stud Q,,,,2001
11614209,Arabica,,,,1978
11614209,Arabica,,,,1978
11634570,Arabica,,,,1974
11637101,Arch Gesch Buchwes,,,,1980
11637101,Arch Gesch Buchwes,,,,1980
11634573,Arch Gesch Buchwes,,,,1978
11631569,Arch Gesch Oberfranken,,,,1979
11631569,Arch Gesch Oberfranken,,,,1979
11631569,Arch Gesch Oberfranken,,,,1979
11634576,Arch Ibero Am,,,,1986
11634576,Arch Ibero Am,,,,1986
11634576,Arch Ibero Am,,,,1986
19348079,Arch Int Hist Idees,,,,1999
19348079,Arch Int Hist Idees,,,,1999
11616602,Arch Int Hist Idees,10.1007/978-94-009-5119-8_4,https://link.springer.com/chapter/10.1007/978-94-009-5119-8_4,Springer,1985
18979682,Arch Orient,,,,2001
18979682,Arch Orient,,,,2001
18551791,Arch Orient,,,,2001
11631587,Arch Orientforsch,,,,1966
11631587,Arch Orientforsch,,,,1966
11631587,Arch Orientforsch,,,,1966
11616591,ANU Hist J,,,,1981
11616591,ANU Hist J,,,,1981
11616591,ANU Hist J,,,,1981
11631329,Aachen Kunstbl,,,,1973
11631329,Aachen Kunstbl,,,,1973
11631330,Aachen Kunstbl,,,,1967
11616435,Aastaraam Eesti Tead Seltsi Rootsis,,,,1980
11616435,Aastaraam Eesti Tead Seltsi Rootsis,,,,1980
11616435,Aastaraam Eesti Tead Seltsi Rootsis,,,,1980
19035021,Arch Reformation Hist,,,,2001
19035021,Arch Reformation Hist,,,,2001
18979689,Arch Reformation Hist,,,,2001
11631591,Arch Sci,,,,1977
11631591,Arch Sci,,,,1977
11631591,Arch Sci,,,,1977
11620108,Aberdeen Univ Rev,,,,1978
11620108,Aberdeen Univ Rev,,,,1978
11616436,Aberdeen Univ Rev,,,,1972
18330041,Arch Sozialgesch,,,,2001
18330041,Arch Sozialgesch,,,,2001
18330041,Arch Sozialgesch,,,,2001
19382373,Arch Stor Ital,,,,1999
19382373,Arch Stor Ital,,,,1999
11631598,Arch Stor Ital,,,,1978
11637077,Arch Stor Prov Napol,,,,1977
11637077,Arch Stor Prov Napol,,,,1977
11637077,Arch Stor Prov Napol,,,,1977
11631607,Arch Stor Sicil,,,,1975
11631607,Arch Stor Sicil,,,,1975
11631607,Arch Stor Sicil,,,,1975
17111550,Acadiensis,,,,2000
17111550,Acadiensis,,,,2000
11616440,Acadiensis,,,,1990
11631611,Archaeol Cantiana,,,,1979
11631611,Archaeol Cantiana,,,,1979
11631611,Archaeol Cantiana,,,,1979
11634589,Archief Meded k Zeeuwsch Genoot Wet,,,,1971
11634589,Archief Meded k Zeeuwsch Genoot Wet,,,,1971
11634589,Archief Meded k Zeeuwsch Genoot Wet,,,,1971
11616607,Archifacts,,,,1988
11616607,Archifacts,,,,1988
11616607,Archifacts,,,,1988
11634591,Archiginnasio,,,,1987
11634591,Archiginnasio,,,,1987
11634592,Archiginnasio,,,,1968
11631618,Archit Aujourdhui,,,,1970
11631618,Archit Aujourdhui,,,,1970
11631618,Archit Aujourdhui,,,,1970
11631610,Archaeol Anz,,,,1970
11631610,Archaeol Anz,,,,1970
11631610,Archaeol Anz,,,,1970
11634588,Arch Veneto,,,,1983
11634588,Arch Veneto,,,,1983
11634588,Arch Veneto,,,,1983
11616608,Archivaria,,,,1990
11616608,Archivaria,,,,1990
11616613,Archivaria,,,,1980
11619635,Aramco World Mag,,,,1980
11619635,Aramco World Mag,,,,1980
11619635,Aramco World Mag,,,,1980
11631571,Arch Hisp,,,,1976
11631571,Arch Hisp,,,,1976
11631571,Arch Hisp,,,,1976
17633791,Arch Sci Soc Relig,,,,2001
17633791,Arch Sci Soc Relig,,,,2001
17326315,Arch Sci Soc Relig,,,,2002
11614222,Ark Archeol,,,,1979
11614222,Ark Archeol,,,,1979
11614222,Ark Archeol,,,,1979
11614132,Acta Balt,,,,1974
11614132,Acta Balt,,,,1974
11614132,Acta Balt,,,,1974
11616442,Acta Ethnol Linguist,,,,1984
11616442,Acta Ethnol Linguist,,,,1984
11631333,Acta Ethnol Linguist,,,,1982
11634456,Acta Numis,,,,1985
11634456,Acta Numis,,,,1985
11634456,Acta Numis,,,,1985
18686349,Acta Pol Hist,,,,2001
18686349,Acta Pol Hist,,,,2001
19156982,Acta Pol Hist,,,,1999
11631353,Aegyptus,,,,1977
11631353,Aegyptus,,,,1977
11631351,Aegyptus,,,,1972
11620127,Aust Libr J,,,,1974
11620127,Aust Libr J,,,,1974
11620127,Aust Libr J,,,,1974
11616621,Archivist,,,,1988
11616621,Archivist,,,,1988
11616621,Archivist,,,,1988
11634595,Archivmitteilungen,,,,1988
11634595,Archivmitteilungen,,,,1988
11634595,Archivmitteilungen,,,,1988
11614221,Ariz West,,,,1981
11614221,Ariz West,,,,1981
11614220,Ariz West,,,,1977
11616625,Ark Hist Q,,,,1988
11616625,Ark Hist Q,,,,1988
11614223,Ark Hist Q,,,,1978
11616633,Armen Rev,,,,1986
11616633,Armen Rev,,,,1986
11616633,Armen Rev,,,,1986
11634602,Arq Cent Cult Port,,,,1980
11634602,Arq Cent Cult Port,,,,1980
11634601,Arq Cent Cult Port,,,,1980
11616636,Art Am,,,,1983
11616636,Art Am,,,,1983
11616635,Art Am,,,,1979
11616638,Art Bull,,,,1977
11616638,Art Bull,,,,1977
11616637,Art Bull,10.1080/00043079.1977.10787369,https://www.tandfonline.com/doi/abs/10.1080/00043079.1977.10787369,Taylor & Francis,1977
18988362,Art Hist,10.1111/1467-8365.00280,https://academic.oup.com/crawlprevention/governor?content=%2farthistory%2farticle%2f24%2f4%2f520-551%2f7278616,Oxford University Press,2001
18988362,Art Hist,10.1111/1467-8365.00280,https://academic.oup.com/crawlprevention/governor?content=%2farthistory%2farticle%2f24%2f4%2f520-551%2f7278616,Oxford University Press,2001
11616639,Art Hist,10.1111/j.1467-8365.1983.tb00095.x,https://academic.oup.com/crawlprevention/governor?content=%2farthistory%2farticle%2f6%2f4%2f461-477%2f7284709,Oxford University Press,1983
11631622,Artes Mex,,,,1969
11631622,Artes Mex,,,,1969
11631622,Artes Mex,,,,1969
18551805,Arv,,,,2001
18551805,Arv,,,,2001
19385100,Arv,,,,1999
11637102,Ascania,,,,1977
11637102,Ascania,,,,1977
11637102,Ascania,,,,1977
11620342,Asia Major,,,,1975
11620342,Asia Major,,,,1975
11620342,Asia Major,,,,1975
11616642,Asian Afr Stud,,,,1987
11616642,Asian Afr Stud,,,,1987
11616642,Asian Afr Stud,,,,1987
11619631,Acta Cl,,,,1975
11619631,Acta Cl,,,,1975
11655463,Acta Cl,,,,1973
11614236,Asian Folkl Stud,,,,1980
11614236,Asian Folkl Stud,,,,1980
11614234,Asian Folkl Stud,,,,1969
11614237,Asian Perspect,,,,1974
11614237,Asian Perspect,,,,1974
11614237,Asian Perspect,,,,1974
11631338,Acta Mus Napocensis,,,,1978
11631338,Acta Mus Napocensis,,,,1978
11631337,Acta Mus Napocensis,,,,1975
11616647,Asian Thought Soc,,,,1985
11616647,Asian Thought Soc,,,,1985
11616647,Asian Thought Soc,,,,1985
11631629,Asiat Forsch,,,,1980
11631629,Asiat Forsch,,,,1980
11631629,Asiat Forsch,,,,1980
19156978,Acta Univ Carol Philos Hist,,,,1999
19156978,Acta Univ Carol Philos Hist,,,,1999
19130690,Acta Univ Carol Philos Hist,,,,1999
11616649,Atlanta Hist,,,,1987
11616649,Atlanta Hist,,,,1987
11616649,Atlanta Hist,,,,1987
11616651,Atlanta Hist J.,,,,1985
11616651,Atlanta Hist J.,,,,1985
11616650,Atlanta Hist J.,,,,1978
11616454,Advent Herit,,,,1986
11616454,Advent Herit,,,,1986
11634466,Advent Herit,,,,1983
11614138,Aerosp Hist,,,,1967
11614138,Aerosp Hist,,,,1967
11614138,Aerosp Hist,,,,1967
19039865,Aevum,,,,2001
19039865,Aevum,,,,2001
19039865,Aevum,,,,2001
18649426,Afr Econ Hist,,,,2001
18649426,Afr Econ Hist,,,,2001
19280757,Afr Econ Hist,,,,1999
11620111,Afr Hist Stud,,,,1968
11620111,Afr Hist Stud,,,,1968
11620111,Afr Hist Stud,,,,1968
11616460,Afr Notes News,,,,1988
11616460,Afr Notes News,,,,1988
11634469,Afr Notes News,,,,1977
11623428,Afr Uebersee,,,,1975
11623428,Afr Uebersee,,,,1975
11623428,Afr Uebersee,,,,1975
11634620,Atti Mem Accad Ital Stor Farm,,,,1990
11634620,Atti Mem Accad Ital Stor Farm,,,,1990
11634610,Atti Mem Accad Ital Stor Farm,,,,1989
11634623,Atti Mem R Accad Petrarca Lett Arti Sci,,,,1981
11634623,Atti Mem R Accad Petrarca Lett Arti Sci,,,,1981
11634623,Atti Mem R Accad Petrarca Lett Arti Sci,,,,1981
11631630,Ausgrab Funde,,,,1979
11631630,Ausgrab Funde,,,,1979
11631630,Ausgrab Funde,,,,1979
17357242,Aust Cult Hist,,,,2002
17357242,Aust Cult Hist,,,,2002
19226680,Aust Cult Hist,,,,1999
34413533,Aust Econ Hist Rev,10.1111/aehr.12215,https://onlinelibrary.wiley.com/doi/10.1111/aehr.12215,Wiley,2021
34413533,Aust Econ Hist Rev,10.1111/aehr.12215,https://onlinelibrary.wiley.com/doi/10.1111/aehr.12215,Wiley,2021
18183674,Aust Econ Hist Rev,10.1111/1467-8446.00080,https://onlinelibrary.wiley.com/doi/10.1111/1467-8446.00080,Wiley,2001
29888345,Aust Hist Stud,10.1080/1031461X.2017.1293704,https://www.tandfonline.com/doi/full/10.1080/1031461X.2017.1293704,Taylor & Francis,2017
29888345,Aust Hist Stud,10.1080/1031461X.2017.1293704,https://www.tandfonline.com/doi/full/10.1080/1031461X.2017.1293704,Taylor & Francis,2017
19405219,Aust Hist Stud,10.1080/10314619908596090,https://www.tandfonline.com/doi/abs/10.1080/10314619908596090,Taylor & Francis,1999
18705162,Aust J Fr Stud,,,,2001
18705162,Aust J Fr Stud,,,,2001
19405225,Aust J Fr Stud,10.3828/ajfs.1999.36.1.3,https://www.liverpooluniversitypress.co.uk/doi/10.3828/ajfs.1999.36.1.3,Unknown,1999
20795293,Aust J Polit Hist,10.1111/j.1467-8497.2010.01560.x,https://onlinelibrary.wiley.com/doi/10.1111/j.1467-8497.2010.01560.x,Wiley,2010
20795293,Aust J Polit Hist,10.1111/j.1467-8497.2010.01560.x,https://onlinelibrary.wiley.com/doi/10.1111/j.1467-8497.2010.01560.x,Wiley,2010
11616657,Aust J Polit Hist,10.1111/j.1467-8497.1986.tb00884.x,https://onlinelibrary.wiley.com/doi/10.1111/j.1467-8497.1986.tb00884.x,Wiley,1986
11616659,Aust Q,,,,1983
11616659,Aust Q,,,,1983
11616659,Aust Q,,,,1983
11616668,Austriaca,,,,1987
11616668,Austriaca,,,,1987
11616662,Austriaca,,,,1985
11614233,Asia Q,,,,1974
11614233,Asia Q,,,,1974
11614233,Asia Q,,,,1974
11631339,Acta Salmanticensia Ser Filos Letra,,,,1973
11631339,Acta Salmanticensia Ser Filos Letra,,,,1973
11631339,Acta Salmanticensia Ser Filos Letra,,,,1973
11636349,Atti Mem Accad Toscana Sci Lett Colombaria,,,,1982
11636349,Atti Mem Accad Toscana Sci Lett Colombaria,,,,1982
21213697,Atti Mem Accad Toscana Sci Lett Colombaria,,,,1971
11620110,Acta Acad Sci Pol,,,,1985
11620110,Acta Acad Sci Pol,,,,1985
11620110,Acta Acad Sci Pol,,,,1985
11616466,Afro Am N Y Life Hist,,,,1990
11616466,Afro Am N Y Life Hist,,,,1990
11616466,Afro Am N Y Life Hist,,,,1990
11614173,Am Horseman,,,,1974
11614173,Am Horseman,,,,1974
11614173,Am Horseman,,,,1974
18939330,Ann Fond Luigi Einaudi,,,,2001
18939330,Ann Fond Luigi Einaudi,,,,2001
11634543,Ann Fond Luigi Einaudi,,,,1982
11614199,Ann Serv Antiq Egypte,,,,1979
11614199,Ann Serv Antiq Egypte,,,,1979
11614199,Ann Serv Antiq Egypte,,,,1979
11631534,Ann soc Emul Bruges,,,,1979
11631534,Ann soc Emul Bruges,,,,1979
11637092,Ann soc Emul Bruges,,,,1966
21966749,Am J Philol,10.1353/ajp.2004.0030,https://muse.jhu.edu/article/173393,Unknown,2004
21966749,Am J Philol,10.1353/ajp.2004.0030,https://muse.jhu.edu/article/173393,Unknown,2004
21966719,Am J Philol,10.1353/ajp.2003.0023,https://muse.jhu.edu/article/41203,Unknown,2003
21337741,Am Jew Hist,,,,2009
21337741,Am Jew Hist,,,,2009
21337741,Am Jew Hist,,,,2009
11634679,Bologna Incontri,,,,1974
11634679,Bologna Incontri,,,,1974
11634679,Bologna Incontri,,,,1974
22826896,Am Q,10.1353/aq.2012.0001,https://muse.jhu.edu/article/470203,Unknown,2012
22826896,Am Q,10.1353/aq.2012.0001,https://muse.jhu.edu/article/470203,Unknown,2012
17724858,Am Q,10.1353/aq.2000.0018,https://muse.jhu.edu/article/2442,Unknown,2000
25859054,Am Speech,10.1215/00031283-2322637,https://read.dukeupress.edu/american-speech/article-abstract/88/1/63/5965/EVERYBODY-SOUNDS-THE-Same-OTHERWISE-OVERLOOKED?redirectedFrom=fulltext,Unknown,2013
25859054,Am Speech,10.1215/00031283-2322637,https://read.dukeupress.edu/american-speech/article-abstract/88/1/63/5965/EVERYBODY-SOUNDS-THE-Same-OTHERWISE-OVERLOOKED?redirectedFrom=fulltext,Unknown,2013
11623431,Am Speech,,,,1984
37818207,Am Polit Sci Rev,10.1017/s153759272100311x,https://www.cambridge.org/core/journals/perspectives-on-politics/article/participatory-implications-of-racialized-policy-feedback/18F64ADE74969FA943150B5699CD1FDA,Cambridge University Press,2023
37818207,Am Polit Sci Rev,10.1017/s153759272100311x,https://www.cambridge.org/core/journals/perspectives-on-politics/article/participatory-implications-of-racialized-policy-feedback/18F64ADE74969FA943150B5699CD1FDA,Cambridge University Press,2023
11616538,Am Polit Sci Rev,,,,1988
18949874,Ann Normandie,,,,2001
18949874,Ann Normandie,,,,2001
18663822,Ann Normandie,,,,2001
19009717,Ann Midi,10.3406/anami.2001.2742,https://www.persee.fr/doc/anami_0003-4398_2001_num_113_236_2742,Unknown,2001
19009717,Ann Midi,10.3406/anami.2001.2742,https://www.persee.fr/doc/anami_0003-4398_2001_num_113_236_2742,Unknown,2001
19294807,Ann Midi,10.3406/anami.1999.2635,https://www.persee.fr/doc/anami_0003-4398_1999_num_111_227_2635,Unknown,1999
17089482,Ann Iowa,,,,2000
17089482,Ann Iowa,,,,2000
16808061,Ann Iowa,,,,2002
11637069,Ann Hist Mantois,,,,1979
11637069,Ann Hist Mantois,,,,1979
11637069,Ann Hist Mantois,,,,1979
11634628,Aziia Afr Segodnia,,,,1986
11634628,Aziia Afr Segodnia,,,,1986
11631635,Aziia Afr Segodnia,,,,1981
11637103,BL Heimatkd,,,,1982
11637103,BL Heimatkd,,,,1982
11634654,BL Heimatkd,,,,1982
11634668,Bol Bibl Menendez Pelayo,,,,1984
11634668,Bol Bibl Menendez Pelayo,,,,1984
11634668,Bol Bibl Menendez Pelayo,,,,1984
11636741,Bol Cent Estud Siglo XVIII,,,,1978
11636741,Bol Cent Estud Siglo XVIII,,,,1978
11636741,Bol Cent Estud Siglo XVIII,,,,1978
36713646,Bull Econ Res,10.1111/boer.12376,https://onlinelibrary.wiley.com/doi/10.1111/boer.12376,Wiley,2022
36713646,Bull Econ Res,10.1111/boer.12376,https://onlinelibrary.wiley.com/doi/10.1111/boer.12376,Wiley,2022
11616723,Bull Econ Res,10.1111/j.1467-8586.1985.tb00195.x,https://onlinelibrary.wiley.com/doi/10.1111/j.1467-8586.1985.tb00195.x,Wiley,1985
11616724,Bull Gloucester Cty Hist Soc,,,,1984
11616724,Bull Gloucester Cty Hist Soc,,,,1984
11620132,Bull Gloucester Cty Hist Soc,,,,1984
11614295,Bull Ga Acad Sci,,,,1967
11614295,Bull Ga Acad Sci,,,,1967
11614295,Bull Ga Acad Sci,,,,1967
11634693,Bull Etud Valeryennes,,,,1980
11634693,Bull Etud Valeryennes,,,,1980
11634693,Bull Etud Valeryennes,,,,1980
11631691,Br Hist Illus,,,,1979
11631691,Br Hist Illus,,,,1979
11631689,Br Hist Illus,,,,1978
11616706,Br Stud Monit,,,,1980
11616706,Br Stud Monit,,,,1980
11616706,Br Stud Monit,,,,1980
11614251,Aztlan,,,,1982
11614251,Aztlan,,,,1982
11614250,Aztlan,,,,1979
17091573,B C Stud,,,,2000
17091573,B C Stud,,,,2000
16805071,B C Stud,,,,2002
11619850,BDD,,,,1997
11619850,BDD,,,,1997
11619850,BDD,,,,1997
11634630,Balcanica,,,,1983
11634630,Balcanica,,,,1983
11634630,Balcanica,,,,1983
11619637,Baltim Mag,,,,1989
11619637,Baltim Mag,,,,1989
11619637,Baltim Mag,,,,1989
17654815,Baptist Hist Herit,,,,2000
17654815,Baptist Hist Herit,,,,2000
17654815,Baptist Hist Herit,,,,2000
18928010,Baptist Q,,,,2001
18928010,Baptist Q,,,,2001
11616670,Baptist Q,10.1080/0005576x.1988.11751782,https://www.tandfonline.com/doi/full/10.1080/0005576X.1988.11751782,Taylor & Francis,1988
11616671,Bartonia,,,,1988
11616671,Bartonia,,,,1988
11616671,Bartonia,,,,1988
11634632,Basl Z Gesch Altertumskd,,,,1977
11634632,Basl Z Gesch Altertumskd,,,,1977
11634631,Basl Z Gesch Altertumskd,,,,1972
11616463,Afr Urban Q,,,,1987
11616463,Afr Urban Q,,,,1987
11616463,Afr Urban Q,,,,1987
18046849,Beaver,,,,2000
18046849,Beaver,,,,2000
11614257,Beaver,,,,1980
11636739,Beitr Dtsch Philol,,,,1984
11636739,Beitr Dtsch Philol,,,,1984
11636739,Beitr Dtsch Philol,,,,1984
18705160,Agratort Szle,,,,2001
18705160,Agratort Szle,,,,2001
11631361,Agratort Szle,,,,1978
11616675,Belcast J Belizean Aff,,,,1985
11616675,Belcast J Belizean Aff,,,,1985
11616675,Belcast J Belizean Aff,,,,1985
18604902,Agric Hist Rev,,,,2001
18604902,Agric Hist Rev,,,,2001
11620313,Agric Hist Rev,,,,1983
11635637,Rev Belge Hist Milit,,,,1988
11635637,Rev Belge Hist Milit,,,,1988
11635637,Rev Belge Hist Milit,,,,1988
18551800,Belg Tijdschr Nieuwste Geschied,,,,2001
18551800,Belg Tijdschr Nieuwste Geschied,,,,2001
11634638,Belg Tijdschr Nieuwste Geschied,,,,1985
11634472,Aguiaine,,,,1985
11634472,Aguiaine,,,,1985
11634472,Aguiaine,,,,1985
11614258,Belizean Stud,,,,1979
11614258,Belizean Stud,,,,1979
11614258,Belizean Stud,,,,1979
11634473,Akad Dzive,,,,1984
11634473,Akad Dzive,,,,1984
11634473,Akad Dzive,,,,1984
17236269,Belleten,,,,2002
17236269,Belleten,,,,2002
11614259,Belleten,,,,1980
19415887,Bengal Past Present,,,,1999
19415887,Bengal Past Present,,,,1999
19415884,Bengal Past Present,,,,1999
17100011,Ala Herit,,,,2000
17100011,Ala Herit,,,,2000
17100011,Ala Herit,,,,2000
11637081,Ber Dtsch Bot Ges,,,,1968
11637081,Ber Dtsch Bot Ges,,,,1968
11637081,Ber Dtsch Bot Ges,,,,1968
11620112,Ala Rev,,,,1987
11620112,Ala Rev,,,,1987
11614146,Ala Rev,,,,1975
11616478,Alaska J,,,,1986
11616478,Alaska J,,,,1986
11616477,Alaska J,,,,1986
17269195,Berytus,,,,1995
17269195,Berytus,,,,1995
17269195,Berytus,,,,1995
11634642,Bevolking Gezin,,,,1982
11634642,Bevolking Gezin,,,,1982
11634642,Bevolking Gezin,,,,1982
19280758,Albion,,,,2009
19280758,Albion,,,,2009
11614151,Albion,,,,1977
11634482,Alt Thuring,,,,1978
11634482,Alt Thuring,,,,1978
11634482,Alt Thuring,,,,1978
11631649,Biblos,,,,1981
11631649,Biblos,,,,1981
11631649,Biblos,,,,1981
11634485,Altertum,,,,1980
11634485,Altertum,,,,1980
11631370,Altertum,,,,1972
11631697,Bijdr Meded,,,,1970
